$molecule
0 2
Na 0.0000000000 0.0000000000 0.0000000000
$end


$rem
AUX_BASIS_CORR rimp2-def2-QZVPPD
MEM_TOTAL 3750
MEM_STATIC 1500
SCF_ALGORITHM GDM_QLS
SCF_CONVERGENCE 7
method DSD-PBEPBE-D3
GEN_SCFMAN TRUE
UNRESTRICTED True
THRESH  14
SYMMETRY FALSE
SYM_IGNORE TRUE
max_scf_cycles 200

XC_GRID 000500000974

BASIS GEN
PURECART 1111
$end


$basis
Na     0
S   1   1.00
    157.4890000              1.00000000
S   1   1.00
     27.9270000              1.0000000
S   19   1.00
1224000.0000000              0.00000500
 183200.0000000              0.00003700
  41700.0000000              0.00019600
  11810.0000000              0.00082700
   3853.0000000              0.00300300
   1391.0000000              0.00970300
    542.5000000              0.02823400
    224.9000000              0.07320600
     97.9300000              0.16289700
     44.3100000              0.28870800
     20.6500000              0.34682900
      9.7290000              0.20686500
      4.2280000              0.03280100
      1.9690000             -0.00064800
      0.8890000              0.00145900
      0.3964000             -0.00017800
      0.0699300              0.00009100
      0.0328900             -0.00008300
      0.0161200              0.00002900
S   1   1.00
      4.9520000              1.0000000
S   19   1.00
1224000.0000000             -0.00000100
 183200.0000000             -0.00000900
  41700.0000000             -0.00004800
  11810.0000000             -0.00020200
   3853.0000000             -0.00073600
   1391.0000000             -0.00238700
    542.5000000             -0.00705000
    224.9000000             -0.01878600
     97.9300000             -0.04461500
     44.3100000             -0.08977400
     20.6500000             -0.14294000
      9.7290000             -0.12431500
      4.2280000              0.09996500
      1.9690000              0.41708000
      0.8890000              0.47512300
      0.3964000              0.16326800
      0.0699300              0.00309500
      0.0328900             -0.00155300
      0.0161200              0.00055800
S   1   1.00
      0.8780000              1.0000000
S   1   1.00
      0.3964000              1.0000000
S   1   1.00
      0.0699300              1.0000000
S   18   1.00
 183200.0000000              0.00000100
  41700.0000000              0.00000700
  11810.0000000              0.00003000
   3853.0000000              0.00011100
   1391.0000000              0.00035900
    542.5000000              0.00106300
    224.9000000              0.00282700
     97.9300000              0.00676700
     44.3100000              0.01364800
     20.6500000              0.02228100
      9.7290000              0.01960100
      4.2280000             -0.01677100
      1.9690000             -0.07737300
      0.8890000             -0.11350100
      0.3964000             -0.13913000
      0.0699300              0.44008300
      0.0328900              0.53895200
      0.0161200              0.13388900
S   1   1.00
      0.0328900              1.0000000
S   1   1.00
      0.0161200              1.0000000
S   1   1.00
      5.100000D-03           1.0000000
P   1   1.00
      9.8690000              1.0000000
P   1   1.00
      4.4140000              1.0000000
P   1   1.00
      1.9740000              1.0000000
P   12   1.00
    413.4000000              0.00090800
     97.9800000              0.00741800
     31.3700000              0.03574600
     11.6200000              0.11852000
      4.6710000              0.26140300
      1.9180000              0.37839500
      0.7775000              0.33463200
      0.3013000              0.12684400
      0.2275000             -0.01471200
      0.0752700              0.00568600
      0.0312600             -0.00171000
      0.0134200              0.00054700
P   1   1.00
      0.8830000              1.0000000
P   1   1.00
      0.2275000              1.0000000
P   1   1.00
      0.0752700              1.0000000
P   1   1.00
      0.0312600              1.0000000
P   12   1.00
    413.4000000             -0.00009000
     97.9800000             -0.00073900
     31.3700000             -0.00357300
     11.6200000             -0.01201400
      4.6710000             -0.02671800
      1.9180000             -0.03927500
      0.7775000             -0.03760800
      0.3013000             -0.04332300
      0.2275000              0.05180000
      0.0752700              0.26019400
      0.0312600              0.54968100
      0.0134200              0.28187200
P   1   1.00
      0.0134200              1.0000000
P   1   1.00
      5.500000D-03           1.0000000
D   1   1.00
     14.4010000              1.0000000
D   1   1.00
      6.1840000              1.0000000
D   1   1.00
      2.6560000              1.0000000
D   1   1.00
      1.1400000              1.0000000
D   1   1.00
      0.2734000              1.0000000
D   1   1.00
      0.1538000              1.0000000
D   1   1.00
      0.0865000              1.0000000
D   1   1.00
      0.0487000              1.0000000
D   1   1.00
      2.290000D-02           1.0000000
F   1   1.00
     10.5240000              1.0000000
F   1   1.00
      4.4050000              1.0000000
F   1   1.00
      1.8440000              1.0000000
F   1   1.00
      0.4000000              1.0000000
F   1   1.00
      0.1912000              1.0000000
F   1   1.00
      0.1036000              1.0000000
F   1   1.00
      4.140000D-02           1.0000000
G   1   1.00
      7.3260000              1.0000000
G   1   1.00
      2.7270000              1.0000000
G   1   1.00
      0.4250000              1.0000000
G   1   1.00
      0.1722000              1.0000000
G   1   1.00
      7.320000D-02           1.0000000
H   1   1.00
      5.1330000              1.0000000
H   1   1.00
      0.2000000              1.0000000
H   1   1.00
      1.048000D-01           1.0000000
****
Mg     0
S   20   1.00
2968000.0000000              0.197177D-05
 444300.0000000              0.153362D-04
 101100.0000000              0.806852D-04
  28640.0000000              0.340771D-03
   9343.0000000              0.124194D-02
   3373.0000000              0.404124D-02
   1316.0000000              0.119797D-01
    545.8000000              0.324253D-01
    238.1000000              0.789332D-01
    108.2000000              0.166575D+00
     50.8000000              0.282871D+00
     24.4800000              0.331890D+00
     11.9300000              0.203287D+00
      5.5430000              0.382897D-01
      2.6750000              0.308916D-03
      1.2630000              0.138907D-02
      0.5883000             -0.136159D-03
      0.1496000              0.855322D-04
      0.0670000             -0.569102D-04
      0.0295200              0.177259D-04
S   1   1.00
     14.3960000              1.0000000
S   1   1.00
      8.1290000              1.0000000
S   1   1.00
      4.5900000              1.0000000
S   1   1.00
      2.5920000              1.0000000
S   20   1.00
2968000.0000000             -0.498160D-06
 444300.0000000             -0.387563D-05
 101100.0000000             -0.203854D-04
  28640.0000000             -0.861659D-04
   9343.0000000             -0.314176D-03
   3373.0000000             -0.102577D-02
   1316.0000000             -0.305816D-02
    545.8000000             -0.841063D-02
    238.1000000             -0.211202D-01
    108.2000000             -0.476882D-01
     50.8000000             -0.924119D-01
     24.4800000             -0.142548D+00
     11.9300000             -0.126168D+00
      5.5430000              0.715282D-01
      2.6750000              0.383039D+00
      1.2630000              0.490133D+00
      0.5883000              0.204381D+00
      0.1496000              0.702231D-02
      0.0670000             -0.267874D-02
      0.0295200              0.693690D-03
S   1   1.00
      0.5883000              1.0000000
S   1   1.00
      0.1496000              1.0000000
S   1   1.00
      0.0670000              1.0000000
S   20   1.00
2968000.0000000              0.960175D-07
 444300.0000000              0.746164D-06
 101100.0000000              0.393119D-05
  28640.0000000              0.165812D-04
   9343.0000000              0.606257D-04
   3373.0000000              0.197322D-03
   1316.0000000              0.590881D-03
    545.8000000              0.161904D-02
    238.1000000              0.409756D-02
    108.2000000              0.922989D-02
     50.8000000              0.182168D-01
     24.4800000              0.282884D-01
     11.9300000              0.265059D-01
      5.5430000             -0.172053D-01
      2.6750000             -0.885917D-01
      1.2630000             -0.163871D+00
      0.5883000             -0.159506D+00
      0.1496000              0.321715D+00
      0.0670000              0.591373D+00
      0.0295200              0.236866D+00
S   1   1.00
      0.0295200              1.0000000
S   1   1.00
      1.080000D-02           1.0000000
P   1   1.00
     67.7730000              1.0000000
P   1   1.00
     24.8870000              1.0000000
P   1   1.00
      9.1390000              1.0000000
P   1   1.00
      3.3560000              1.0000000
P   14   1.00
   1441.0000000              0.152407D-03
    341.4000000              0.132764D-02
    110.7000000              0.721937D-02
     41.9700000              0.285205D-01
     17.4900000              0.865346D-01
      7.7530000              0.194950D+00
      3.5340000              0.312051D+00
      1.6140000              0.348476D+00
      0.7299000              0.218886D+00
      0.3029000              0.435579D-01
      0.1583000             -0.373747D-02
      0.0819000              0.305123D-02
      0.0412300             -0.866922D-03
      0.0198800              0.230517D-03
P   1   1.00
      0.1583000              1.0000000
P   1   1.00
      0.0819000              1.0000000
P   14   1.00
   1441.0000000             -0.241031D-04
    341.4000000             -0.210809D-03
    110.7000000             -0.114530D-02
     41.9700000             -0.456417D-02
     17.4900000             -0.139603D-01
      7.7530000             -0.321105D-01
      3.5340000             -0.516217D-01
      1.6140000             -0.613713D-01
      0.7299000             -0.442465D-01
      0.3029000              0.523191D-01
      0.1583000              0.221692D+00
      0.0819000              0.395255D+00
      0.0412300              0.364078D+00
      0.0198800              0.977952D-01
P   1   1.00
      0.0412300              1.0000000
P   1   1.00
      0.0198800              1.0000000
P   1   1.00
      7.100000D-03           1.0000000
D   1   1.00
     24.823000               1.0000000
D   1   1.00
     11.820000               1.0000000
D   1   1.00
      5.6290000              1.0000000
D   1   1.00
      2.3030000              1.0000000
D   1   1.00
      1.1710000              1.0000000
D   1   1.00
      0.5320000              1.0000000
D   1   1.00
      0.2420000              1.0000000
D   1   1.00
      0.1100000              1.0000000
D   1   1.00
      3.710000D-02           1.0000000
F   1   1.00
     13.0000000              1.0000000
F   1   1.00
      5.4710000              1.0000000
F   1   1.00
      2.3030000              1.0000000
F   1   1.00
      0.4480000              1.0000000
F   1   1.00
      0.2640000              1.0000000
F   1   1.00
      0.1550000              1.0000000
F   1   1.00
      5.790000D-02           1.0000000
G   1   1.00
      9.3890000              1.0000000
G   1   1.00
      3.5300000              1.0000000
G   1   1.00
      0.4440000              1.0000000
G   1   1.00
      0.2400000              1.0000000
G   1   1.00
      9.470000D-02           1.0000000
H   1   1.00
      6.7210000              1.0000000
H   1   1.00
      0.3750000              1.0000000
H   1   1.00
      1.577000D-01           1.0000000
****
$end

