$molecule
0 4
P 0.0000000000 0.0000000000 0.0000000000
$end


$rem
AUX_BASIS_CORR rimp2-def2-QZVPPD
MEM_TOTAL 3750
MEM_STATIC 1500
SCF_CONVERGENCE 7
SCF_ALGORITHM  GDM
method DSD-PBEPBE-D3
GEN_SCFMAN TRUE
UNRESTRICTED True
THRESH  14
SYMMETRY FALSE
SYM_IGNORE TRUE
max_scf_cycles 200

XC_GRID 000500000974
BASIS AUG-CC-PCV5Z


$end










