$molecule
0 4
Y  0.0000000000  0.0000000000  0.0000000000
$end


$rem
N_FROZEN_CORE FC
MEM_TOTAL 3750
MEM_STATIC 1500
AUX_BASIS_CORR rimp2-def2-QZVPPD
SCF_CONVERGENCE 6
SCF_ALGORITHM  GDM
method DSD-PBEPBE-D3
GEN_SCFMAN TRUE
UNRESTRICTED True
THRESH  14
SYMMETRY FALSE
SYM_IGNORE TRUE
max_scf_cycles 200

XC_GRID 000250000974
BASIS GEN
PURECART 11111
ECP GEN


$end







$basis
Y     0
S   1   1.00
      3.1372000              1.0000000
S   1   1.00
      1.9603000              1.0000000
S   13   1.00
   5177.1300000              0.0000060
    803.7880000              0.0000420
    176.8550000              0.0001850
     24.7094000              0.0068560
     15.4311000             -0.0514100
      9.6370600              0.1537220
      3.6556900             -0.3427500
      2.1887900             -0.2814160
      0.9669010              0.4317850
      0.5203350              0.6443500
      0.2687380              0.2560410
      0.0934310              0.0142160
      0.0442780             -0.0008570
S   13   1.00
   5177.1300000             -0.0000030
    803.7880000             -0.0000340
    176.8550000             -0.0000560
     24.7094000             -0.0065930
     15.4311000              0.0389400
      9.6370600             -0.1029080
      3.6556900              0.2703540
      2.1887900              0.0618350
      0.9669010             -0.1353620
      0.5203350             -1.2866270
      0.2687380              0.5668990
      0.0934310              2.0738270
      0.0442780             -1.1966140
S   13   1.00
   5177.1300000             -0.0000020
    803.7880000             -0.0000130
    176.8550000             -0.0000630
     24.7094000             -0.0020340
     15.4311000              0.0156890
      9.6370600             -0.0487030
      3.6556900              0.1209540
      2.1887900              0.0857950
      0.9669010             -0.1647410
      0.5203350             -0.3133730
      0.2687380             -0.2505130
      0.0934310              0.3309260
      0.0442780              0.6689400
S   13   1.00
   5177.1300000             -0.0000040
    803.7880000             -0.0000520
    176.8550000             -0.0000830
     24.7094000             -0.0098760
     15.4311000              0.0577990
      9.6370600             -0.1538970
      3.6556900              0.4217130
      2.1887900              0.1309820
      0.9669010             -0.5555320
      0.5203350             -2.5771630
      0.2687380              4.1711070
      0.0934310             -1.4383750
      0.0442780             -1.6047110
S   13   1.00
   5177.1300000             -0.0000120
    803.7880000              0.0000460
    176.8550000             -0.0006750
     24.7094000              0.0212080
     15.4311000             -0.0598710
      9.6370600              0.0151140
      3.6556900             -0.0377770
      2.1887900              1.1622360
      0.9669010             -3.2770720
      0.5203350              1.2701190
      0.2687380              3.1537770
      0.0934310             -6.7129510
      0.0442780              7.3005270
S   1   1.00
      0.0205860              1.0000000
S   1   1.00
      0.0096000              1.0000000
P   1   1.00
      1.7771000              1.0000000
P   1   1.00
      0.6997000              1.0000000
P   10   1.00
    107.4110000              0.0000910
      7.8253700              0.0412730
      4.8896400             -0.1207510
      2.6346700             -0.0913090
      1.2906400              0.2467110
      0.6865630              0.4542820
      0.3642540              0.3496890
      0.1880790              0.1146010
      0.0906470              0.0109550
      0.0433930              0.0016130
P   10   1.00
    107.4110000             -0.0000790
      7.8253700             -0.0378270
      4.8896400              0.1192150
      2.6346700              0.0674820
      1.2906400             -0.2648700
      0.6865630             -1.1887760
      0.3642540              1.3402300
      0.1880790              1.1973990
      0.0906470             -2.3967800
      0.0433930              0.7039560
P   10   1.00
    107.4110000             -0.0000650
      7.8253700             -0.0284960
      4.8896400              0.0852470
      2.6346700              0.0687010
      1.2906400             -0.1845780
      0.6865630             -0.6131370
      0.3642540             -0.2279870
      0.1880790              1.3845570
      0.0906470              0.1841280
      0.0433930             -0.8904790
P   10   1.00
    107.4110000             -0.0000300
      7.8253700             -0.0128200
      4.8896400              0.0389180
      2.6346700              0.0262170
      1.2906400             -0.0850530
      0.6865630             -0.1644870
      0.3642540             -0.1767940
      0.1880790              0.0390610
      0.0906470              0.4379790
      0.0433930              0.5157770
P   10   1.00
    107.4110000             -0.0001660
      7.8253700             -0.0512630
      4.8896400              0.1531410
      2.6346700              0.2656770
      1.2906400             -1.1525810
      0.6865630             -1.1729520
      0.3642540              4.9116730
      0.1880790             -5.0069800
      0.0906470              1.9625810
      0.0433930              0.7231000
P   1   1.00
      0.0203400              1.0000000
P   1   1.00
      0.0095000              1.0000000
D   1   1.00
      0.9257000              1.0000000
D   1   1.00
      0.4818000              1.0000000
D   9   1.00
     44.4707000              0.0001300
     12.2260000              0.0012450
      5.0145900             -0.0064180
      1.6657600              0.0515240
      0.8894000              0.1608100
      0.4492320              0.2592560
      0.2178540              0.3131190
      0.1023240              0.2970510
      0.0468400              0.1865630
D   9   1.00
     44.4707000              0.0001980
     12.2260000              0.0019390
      5.0145900             -0.0100050
      1.6657600              0.0955710
      0.8894000              0.2915650
      0.4492320              0.4281810
      0.2178540             -0.3428950
      0.1023240             -0.8129610
      0.0468400              0.3614820
D   9   1.00
     44.4707000             -0.0001640
     12.2260000             -0.0014080
      5.0145900              0.0073280
      1.6657600             -0.0672140
      0.8894000             -0.1989690
      0.4492320             -0.3268610
      0.2178540             -0.2274790
      0.1023240              0.2344810
      0.0468400              0.5414920
D   9   1.00
     44.4707000             -0.0003660
     12.2260000             -0.0021570
      5.0145900              0.0129660
      1.6657600             -0.1214120
      0.8894000             -0.6795100
      0.4492320              0.0093200
      0.2178540              1.4118300
      0.1023240             -0.9492730
      0.0468400             -0.5277300
D   1   1.00
      0.0205940              1.0000000
D   1   1.00
      0.0091000              1.0000000
F   1   1.00
      1.7515000              1.0000000
F   1   1.00
      0.6998000              1.0000000
F   1   1.00
      0.2796000              1.0000000
F   1   1.00
      0.0880000              1.0000000
F   1   1.00
      0.0277000              1.0000000
G   1   1.00
      1.4240000              1.0000000
G   1   1.00
      0.5607000              1.0000000
G   1   1.00
      0.1735000              1.0000000
G   1   1.00
      0.0537000              1.0000000
H   1   1.00
      1.1679000              1.0000000
H   1   1.00
      0.3395000              1.0000000
H   1   1.00
      0.0987000              1.0000000
****
Zr     0
S   1   1.00
      1.3259000              1.0000000
S   1   1.00
      0.8291000              1.0000000
S   13   1.00
   5675.2400000              0.0000060
    863.1340000              0.0000460
    190.3400000              0.0001980
     26.9090000              0.0070570
     16.8039000             -0.0530490
     10.4957000              0.1577920
      3.9316800             -0.3577070
      2.4065300             -0.2830480
      1.0562800              0.4624190
      0.5710270              0.6391000
      0.2958580              0.2418360
      0.1043250              0.0136140
      0.0485630             -0.0007280
S   13   1.00
   5675.2400000             -0.0000030
    863.1340000             -0.0000400
    190.3400000             -0.0000710
     26.9090000             -0.0072040
     16.8039000              0.0429900
     10.4957000             -0.1141280
      3.9316800              0.3101060
      2.4065300              0.0689160
      1.0562800             -0.2137110
      0.5710270             -1.4303860
      0.2958580              0.8787700
      0.1043250              1.8905350
      0.0485630             -1.2450350
S   13   1.00
   5675.2400000             -0.0000020
    863.1340000             -0.0000150
    190.3400000             -0.0000680
     26.9090000             -0.0021350
     16.8039000              0.0164650
     10.4957000             -0.0508100
      3.9316800              0.1293950
      2.4065300              0.0858250
      1.0562800             -0.1802650
      0.5710270             -0.3258040
      0.2958580             -0.2273070
      0.1043250              0.3456950
      0.0485630              0.6582420
S   13   1.00
   5675.2400000             -0.0000060
    863.1340000             -0.0000510
    190.3400000             -0.0001690
     26.9090000             -0.0077740
     16.8039000              0.0527550
     10.4957000             -0.1563380
      3.9316800              0.4515910
      2.4065300              0.2384230
      1.0562800             -1.1251000
      0.5710270             -2.0104270
      0.2958580              4.3180980
      0.1043250             -2.3194350
      0.0485630             -0.6481260
S   13   1.00
   5675.2400000             -0.0000160
    863.1340000              0.0000580
    190.3400000             -0.0008910
     26.9090000              0.0273980
     16.8039000             -0.0769940
     10.4957000              0.0179110
      3.9316800             -0.0205690
      2.4065300              1.4847690
      1.0562800             -5.2993640
      0.5710270              5.0797270
      0.2958580             -0.0139520
      0.1043250             -4.7172460
      0.0485630              6.0430530
S   1   1.00
      0.0223560              1.0000000
S   1   1.00
      0.0103000              1.0000000
P   1   1.00
      2.0477000              1.0000000
P   1   1.00
      0.7803000              1.0000000
P   10   1.00
    122.6140000              0.0000890
      8.6017600              0.0431890
      5.3756700             -0.1256900
      2.8732600             -0.0984530
      1.4314800              0.2616530
      0.7585420              0.4684370
      0.3983330              0.3431180
      0.2005520              0.1015390
      0.0942630              0.0077750
      0.0439730              0.0014680
P   10   1.00
    122.6140000             -0.0000420
      8.6017600             -0.0186700
      5.3756700              0.0562710
      2.8732600              0.0412580
      1.4314800             -0.1303570
      0.7585420             -0.2424890
      0.3983330             -0.2520430
      0.2005520              0.2222450
      0.0942630              0.6873330
      0.0439730              0.2793880
P   10   1.00
    122.6140000             -0.0000720
      8.6017600             -0.0353270
      5.3756700              0.1073430
      2.8732600              0.0781030
      1.4314800             -0.2483300
      0.7585420             -0.7742400
      0.3983330              0.1204770
      0.2005520              1.5143590
      0.0942630             -0.4188840
      0.0439730             -0.7176520
P   10   1.00
    122.6140000             -0.0000290
      8.6017600             -0.0132920
      5.3756700              0.0402610
      2.8732600              0.0278420
      1.4314800             -0.0900280
      0.7585420             -0.1740550
      0.3983330             -0.1576400
      0.2005520              0.0813280
      0.0942630              0.4341340
      0.0439730              0.4929950
P   10   1.00
    122.6140000             -0.0001010
      8.6017600             -0.0557630
      5.3756700              0.1714680
      2.8732600              0.1546890
      1.4314800             -0.7228250
      0.7585420             -1.2765790
      0.3983330              2.9768200
      0.2005520             -1.0541120
      0.0942630             -1.4600030
      0.0439730              1.3306580
P   1   1.00
      0.0202460              1.0000000
P   1   1.00
      0.0093000              1.0000000
D   1   1.00
      2.0002000              1.0000000
D   1   1.00
      0.6603000              1.0000000
D   9   1.00
     48.6431000              0.0001600
     13.5835000              0.0015130
      5.3945300             -0.0091330
      1.8630000              0.0638690
      1.0079200              0.1893790
      0.5198200              0.2877480
      0.2594550              0.3152610
      0.1255900              0.2608760
      0.0589320              0.1415580
D   9   1.00
     48.6431000              0.0003110
     13.5835000              0.0020970
      5.3945300             -0.0135190
      1.8630000              0.1372450
      1.0079200              0.3797260
      0.5198200              0.3322720
      0.2594550             -0.5609850
      0.1255900             -0.6443880
      0.0589320              0.4851650
D   9   1.00
     48.6431000             -0.0004680
     13.5835000             -0.0028050
      5.3945300              0.0199580
      1.8630000             -0.2202750
      1.0079200             -0.7531930
      0.5198200              0.4522480
      0.2594550              1.1905720
      0.1255900             -1.2301770
      0.0589320             -0.2159390
D   9   1.00
     48.6431000             -0.0001990
     13.5835000             -0.0016270
      5.3945300              0.0100510
      1.8630000             -0.0817780
      1.0079200             -0.2318160
      0.5198200             -0.3431630
      0.2594550             -0.1316050
      0.1255900              0.3309010
      0.0589320              0.5074600
D   1   1.00
      0.0262290              1.0000000
D   1   1.00
      0.0117000              1.0000000
F   1   1.00
      2.3058000              1.0000000
F   1   1.00
      0.9648000              1.0000000
F   1   1.00
      0.4037000              1.0000000
F   1   1.00
      0.1354000              1.0000000
F   1   1.00
      0.0454000              1.0000000
G   1   1.00
      1.7030000              1.0000000
G   1   1.00
      0.7284000              1.0000000
G   1   1.00
      0.2490000              1.0000000
G   1   1.00
      0.0851000              1.0000000
H   1   1.00
      1.4934000              1.0000000
H   1   1.00
      0.5010000              1.0000000
H   1   1.00
      0.1681000              1.0000000
****
Nb     0
S   1   1.00
      1.5380000              1.0000000
S   1   1.00
      0.9621000              1.0000000
S   13   1.00
   5729.3600000              0.0000080
    898.7570000              0.0000520
    203.1540000              0.0002160
     29.0821000              0.0073960
     18.1596000             -0.0552510
     11.3420000              0.1632580
      4.2245400             -0.3721490
      2.6381700             -0.2827570
      1.1509900              0.4840580
      0.6250000              0.6333390
      0.3244810              0.2343950
      0.1141370              0.0132460
      0.0524230             -0.0007750
S   13   1.00
   5729.3600000             -0.0000040
    898.7570000             -0.0000460
    203.1540000             -0.0000850
     29.0821000             -0.0076920
     18.1596000              0.0460280
     11.3420000             -0.1222600
      4.2245400              0.3382530
      2.6381700              0.0701100
      1.1509900             -0.2716550
      0.6250000             -1.4798190
      0.3244810              1.0436440
      0.1141370              1.7512880
      0.0524230             -1.2255670
S   13   1.00
   5729.3600000             -0.0000080
    898.7570000             -0.0000580
    203.1540000             -0.0002260
     29.0821000             -0.0074160
     18.1596000              0.0539120
     11.3420000             -0.1667540
      4.2245400              0.5029010
      2.6381700              0.2662620
      1.1509900             -1.5007590
      0.6250000             -1.5285370
      0.3244810              4.2085080
      0.1141370             -2.6574950
      0.0524230             -0.1836000
S   13   1.00
   5729.3600000             -0.0000030
    898.7570000             -0.0000170
    203.1540000             -0.0000750
     29.0821000             -0.0022520
     18.1596000              0.0172420
     11.3420000             -0.0528630
      4.2245400              0.1363550
      2.6381700              0.0845410
      1.1509900             -0.1912600
      0.6250000             -0.3296300
      0.3244810             -0.2097360
      0.1141370              0.3537950
      0.0524230              0.6495660
S   13   1.00
   5729.3600000             -0.0000200
    898.7570000              0.0000500
    203.1540000             -0.0009920
     29.0821000              0.0264760
     18.1596000             -0.0672280
     11.3420000             -0.0180330
      4.2245400              0.1081030
      2.6381700              1.5653000
      1.1509900             -6.7398560
      0.6250000              7.9760920
      0.3244810             -2.5603720
      0.1141370             -2.9311650
      0.0524230              4.7735390
S   1   1.00
      0.0239040              1.0000000
S   1   1.00
      0.0109000              1.0000000
P   1   1.00
      2.3160000              1.0000000
P   1   1.00
      0.8808000              1.0000000
P   10   1.00
    138.4600000              0.0000870
      9.3123800              0.0460850
      5.8201500             -0.1347720
      3.0589600             -0.1053350
      1.5902700              0.2747760
      0.8361380              0.4792360
      0.4360320              0.3375730
      0.2167160              0.0941580
      0.1018830              0.0062330
      0.0473870              0.0014690
P   10   1.00
    138.4600000             -0.0000430
      9.3123800             -0.0210770
      5.8201500              0.0638960
      3.0589600              0.0466950
      1.5902700             -0.1449560
      0.8361380             -0.2742540
      0.4360320             -0.2375990
      0.2167160              0.2952600
      0.1018830              0.6708660
      0.0473870              0.2356770
P   10   1.00
    138.4600000             -0.0000730
      9.3123800             -0.0390570
      5.8201500              0.1198810
      3.0589600              0.0864220
      1.5902700             -0.2891420
      0.8361380             -0.8052000
      0.4360320              0.2953950
      0.2167160              1.4185360
      0.1018830             -0.5209570
      0.0473870             -0.6615440
P   10   1.00
    138.4600000             -0.0000290
      9.3123800             -0.0143860
      5.8201500              0.0438130
      3.0589600              0.0302870
      1.5902700             -0.0963090
      0.8361380             -0.1837030
      0.4360320             -0.1496950
      0.2167160              0.1031560
      0.1018830              0.4396420
      0.0473870              0.4785870
P   10   1.00
    138.4600000             -0.0001020
      9.3123800             -0.0630370
      5.8201500              0.1953600
      3.0589600              0.1871900
      1.5902700             -0.9029120
      0.8361380             -1.0655850
      0.4360320              3.0265000
      0.2167160             -1.4246220
      0.1018830             -1.1257930
      0.0473870              1.2566670
P   1   1.00
      0.0217480              1.0000000
P   1   1.00
      0.0100000              1.0000000
D   1   1.00
      2.3719000              1.0000000
D   1   1.00
      0.8226000              1.0000000
D   9   1.00
     55.5243000              0.0001800
     15.8430000              0.0015650
      5.7920600             -0.0100360
      2.1776800              0.0585180
      1.2209000              0.1897930
      0.6445770              0.2945090
      0.3278110              0.3174790
      0.1609180              0.2524380
      0.0761310              0.1316200
D   9   1.00
     55.5243000              0.0003560
     15.8430000              0.0023390
      5.7920600             -0.0159450
      2.1776800              0.1419710
      1.2209000              0.4109560
      0.6445770              0.3210380
      0.3278110             -0.5989470
      0.1609180             -0.6084580
      0.0761310              0.4610850
D   9   1.00
     55.5243000             -0.0005480
     15.8430000             -0.0030070
      5.7920600              0.0229940
      2.1776800             -0.2487660
      1.2209000             -0.7513270
      0.6445770              0.5055700
      0.3278110              1.1509160
      0.1609180             -1.1909780
      0.0761310             -0.2850970
D   9   1.00
     55.5243000             -0.0002210
     15.8430000             -0.0016600
      5.7920600              0.0108870
      2.1776800             -0.0759490
      1.2209000             -0.2327040
      0.6445770             -0.3415990
      0.3278110             -0.1222670
      0.1609180              0.3328420
      0.0761310              0.5027080
D   1   1.00
      0.0339110              1.0000000
D   1   1.00
      0.0151000              1.0000000
F   1   1.00
      2.9730000              1.0000000
F   1   1.00
      1.2561000              1.0000000
F   1   1.00
      0.5307000              1.0000000
F   1   1.00
      0.1835000              1.0000000
F   1   1.00
      0.0634000              1.0000000
G   1   1.00
      2.0015000              1.0000000
G   1   1.00
      0.9019000              1.0000000
G   1   1.00
      0.3318000              1.0000000
G   1   1.00
      0.1221000              1.0000000
H   1   1.00
      1.8224000              1.0000000
H   1   1.00
      0.6732000              1.0000000
H   1   1.00
      0.2487000              1.0000000
****
Mo     0
S   1   1.00
      1.7274000              1.0000000
S   1   1.00
      1.0810000              1.0000000
S   13   1.00
   6711.2300000              0.0000080
    988.2620000              0.0000590
    216.2910000              0.0002440
     31.1617000              0.0077510
     19.4654000             -0.0577500
     12.1603000              0.1702780
      4.5171000             -0.3983930
      2.8203200             -0.2761780
      1.2602800              0.5039470
      0.6800130              0.6368170
      0.3514060              0.2246810
      0.1247460              0.0120130
      0.0566870             -0.0007040
S   13   1.00
   6711.2300000             -0.0000050
    988.2620000             -0.0000490
    216.2910000             -0.0001130
     31.1617000             -0.0076210
     19.4654000              0.0466430
     12.1603000             -0.1260310
      4.5171000              0.3550690
      2.8203200              0.0788460
      1.2602800             -0.3292100
      0.6800130             -1.4622420
      0.3514060              1.1047470
      0.1247460              1.6428490
      0.0566870             -1.1446510
S   13   1.00
   6711.2300000             -0.0000090
    988.2620000             -0.0000660
    216.2910000             -0.0002910
     31.1617000             -0.0072570
     19.4654000              0.0559090
     12.1603000             -0.1790880
      4.5171000              0.5626060
      2.8203200              0.2990240
      1.2602800             -1.8724510
      0.6800130             -0.9933480
      0.3514060              3.9567310
      0.1247460             -2.7368330
      0.0566870             -0.0070370
S   13   1.00
   6711.2300000             -0.0000030
    988.2620000             -0.0000190
    216.2910000             -0.0000840
     31.1617000             -0.0023280
     19.4654000              0.0178340
     12.1603000             -0.0546970
      4.5171000              0.1452280
      2.8203200              0.0805810
      1.2602800             -0.1986470
      0.6800130             -0.3318030
      0.3514060             -0.1945790
      0.1247460              0.3483100
      0.0566870              0.6441110
S   13   1.00
   6711.2300000             -0.0000180
    988.2620000             -0.0000170
    216.2910000             -0.0008440
     31.1617000              0.0129570
     19.4654000             -0.0099490
     12.1603000             -0.1236980
      4.5171000              0.4468930
      2.8203200              1.4039530
      1.2602800             -7.7842940
      0.6800130             10.2859540
      0.3514060             -4.7884940
      0.1247460             -1.2294860
      0.0566870              3.4559250
S   1   1.00
      0.0255690              1.0000000
S   1   1.00
      0.0115000              1.0000000
P   1   1.00
      2.5802000              1.0000000
P   1   1.00
      1.0115000              1.0000000
P   10   1.00
    152.9580000              0.0000890
     10.0454000              0.0486580
      6.2786900             -0.1429160
      3.2529000             -0.1119240
      1.7561900              0.2872550
      0.9164400              0.4882670
      0.4752100              0.3325040
      0.2340410              0.0879450
      0.1099870              0.0051370
      0.0509000              0.0014690
P   10   1.00
    152.9580000             -0.0000460
     10.0454000             -0.0234060
      6.2786900              0.0713700
      3.2529000              0.0523310
      1.7561900             -0.1606860
      0.9164400             -0.3056960
      0.4752100             -0.2096950
      0.2340410              0.3498440
      0.1099870              0.6427110
      0.0509000              0.2113020
P   10   1.00
    152.9580000             -0.0000820
     10.0454000             -0.0425660
      6.2786900              0.1316610
      3.2529000              0.1041920
      1.7561900             -0.3540870
      0.9164400             -0.8231200
      0.4752100              0.4691120
      0.2340410              1.3060670
      0.1099870             -0.6005210
      0.0509000             -0.6033790
P   10   1.00
    152.9580000             -0.0001570
     10.0454000             -0.0617300
      6.2786900              0.1912730
      3.2529000              0.3034920
      1.7561900             -1.2601600
      0.9164400             -0.6601690
      0.4752100              2.9941100
      0.2340410             -1.8628630
      0.1099870             -0.6548950
      0.0509000              1.0766410
P   10   1.00
    152.9580000             -0.0000300
     10.0454000             -0.0151180
      6.2786900              0.0462370
      3.2529000              0.0321610
      1.7561900             -0.1003680
      0.9164400             -0.1878280
      0.4752100             -0.1412290
      0.2340410              0.1129270
      0.1099870              0.4365490
      0.0509000              0.4735680
P   1   1.00
      0.0231980              1.0000000
P   1   1.00
      0.0106000              1.0000000
D   1   1.00
      2.7811000              1.0000000
D   1   1.00
      0.9599000              1.0000000
D   9   1.00
     64.0194000              0.0001670
     17.5538000              0.0016530
      6.5001600             -0.0132930
      2.4048200              0.0670070
      1.3421000              0.2091290
      0.7078230              0.3096950
      0.3603360              0.3139960
      0.1770770              0.2323510
      0.0836650              0.1119340
D   9   1.00
     64.0194000              0.0003680
     17.5538000              0.0022850
      6.5001600             -0.0210710
      2.4048200              0.1657440
      1.3421000              0.4848470
      0.7078230              0.2113940
      0.3603360             -0.7066180
      0.1770770             -0.4649570
      0.0836650              0.5321680
D   9   1.00
     64.0194000             -0.0003500
     17.5538000             -0.0041070
      6.5001600              0.0359670
      2.4048200             -0.2938650
      1.3421000             -0.8126500
      0.7078230              0.8503400
      0.3603360              0.8690250
      0.1770770             -1.3237980
      0.0836650              0.0049480
D   9   1.00
     64.0194000             -0.0001970
     17.5538000             -0.0017110
      6.5001600              0.0142690
      2.4048200             -0.0826730
      1.3421000             -0.2573070
      0.7078230             -0.3434210
      0.3603360             -0.0548000
      0.1770770              0.3765310
      0.0836650              0.4797980
D   1   1.00
      0.0370260              1.0000000
D   1   1.00
      0.0164000              1.0000000
F   1   1.00
      3.5986000              1.0000000
F   1   1.00
      1.5252000              1.0000000
F   1   1.00
      0.6465000              1.0000000
F   1   1.00
      0.2263000              1.0000000
F   1   1.00
      0.0792000              1.0000000
G   1   1.00
      2.2758000              1.0000000
G   1   1.00
      1.0529000              1.0000000
G   1   1.00
      0.4007000              1.0000000
G   1   1.00
      0.1525000              1.0000000
H   1   1.00
      2.1368000              1.0000000
H   1   1.00
      0.8384000              1.0000000
H   1   1.00
      0.3289000              1.0000000
****
Tc     0
S   1   1.00
      1.9264000              1.0000000
S   1   1.00
      1.2059000              1.0000000
S   13   1.00
   7011.0800000              0.0000090
   1046.1000000              0.0000670
    230.4930000              0.0002740