$molecule
0 1
Pd  0.0000000000  0.0000000000  0.0000000000
$end


$rem
MEM_TOTAL 3750
MEM_STATIC 1500
SCF_CONVERGENCE 7
SCF_ALGORITHM  GDM
method DSD-PBEPBE-D3
GEN_SCFMAN TRUE
UNRESTRICTED True
THRESH  14
SYMMETRY FALSE
SYM_IGNORE TRUE
max_scf_cycles 200
AUX_BASIS_CORR rimp2-def2-QZVPPD
N_FROZEN_CORE 0

XC_GRID 000250000974
BASIS GEN
PURECART 11111


$end







$basis
Pd
S 7 1.00
2.2791560E+07 1.2114070044E-04
3.4126346E+06 9.5028146345E-04
7.7672429E+05 4.9990727181E-03
2.2009425E+05 2.1089249076E-02
7.1852877E+04 7.6536692278E-02
2.5964149E+04 2.4742583090E-01
1.0137784E+04 7.2136054262E-01
S 1 1.00
4.2093298E+03 1.0E+00
S 1 1.00
1.8374663E+03 1.0E+00
S 1 1.00
8.3603847E+02 1.0E+00
S 1 1.00
3.9363466E+02 1.0E+00
S 1 1.00
1.8917133E+02 1.0E+00
S 1 1.00
8.4734860E+01 1.0E+00
S 1 1.00
4.2987615E+01 1.0E+00
S 1 1.00
2.1623412E+01 1.0E+00
S 1 1.00
9.6110682E+00 1.0E+00
S 1 1.00
4.8463822E+00 1.0E+00
S 1 1.00
2.0719674E+00 1.0E+00
S 1 1.00
1.0092441E+00 1.0E+00
S 1 1.00
4.2695238E-01 1.0E+00
P 4 1.00
4.0159454E+04 3.7791835792E-03
9.5099171E+03 3.3534506816E-02
3.0890599E+03 1.9209470894E-01
1.1817315E+03 8.3232610542E-01
P 1 1.00
5.0136308E+02 1.0E+00
P 1 1.00
2.2868333E+02 1.0E+00
P 1 1.00
1.0965896E+02 1.0E+00
P 1 1.00
5.4512120E+01 1.0E+00
P 1 1.00
2.7600325E+01 1.0E+00
P 1 1.00
1.3741355E+01 1.0E+00
P 1 1.00
6.9423451E+00 1.0E+00
P 1 1.00
3.4856966E+00 1.0E+00
P 1 1.00
1.6870165E+00 1.0E+00
P 1 1.00
7.6450286E-01 1.0E+00
P 1 1.00
3.1136194E-01 1.0E+00
D 3 1.00
1.2122767E+03 1.7819028070E-02
3.6556477E+02 1.6591750065E-01
1.4207662E+02 8.7423996343E-01
D 1 1.00
6.2182457E+01 1.0E+00
D 1 1.00
2.9157384E+01 1.0E+00
D 1 1.00
1.4087426E+01 1.0E+00
D 1 1.00
6.9035644E+00 1.0E+00
D 1 1.00
3.3460859E+00 1.0E+00
D 1 1.00
1.5610854E+00 1.0E+00
D 1 1.00
6.8102136E-01 1.0E+00
D 1 1.00
2.7352247E-01 1.0E+00
D 1 1.00
9.8647524E-02 1.0E+00
F 2 1.00
1.3655000E+02 3.8183986888E-01
4.5804000E+01 7.4459908344E-01
F 2 1.00
3.1992000E+01 4.4254139804E-01
1.5640000E+01 6.2309239770E-01
F 2 1.00
1.2685000E+01 6.0235869642E-01
5.6379000E+00 4.8188244407E-01
F 2 1.00
3.7020000E+00 4.0390424488E-01
1.6507000E+00 6.7490368516E-01
F 2 1.00
1.0211000E+00 5.5137577597E-01
4.1602000E-01 5.5137577597E-01
G 2 1.00
8.4630000E+01 1.1288035034E-01
2.8210000E+01 9.4375292906E-01
G 2 1.00
1.6070000E+01 7.1943305057E-01
6.4282000E+00 3.9568749278E-01
G 2 1.00
3.5290000E+00 3.4556958562E-01
1.4386000E+00 7.5773408688E-01
H 2 1.00
4.9476000E+01 2.3161893488E-01
1.9840000E+01 8.6001907174E-01
H 2 1.00
4.3400000E+00 2.5571514079E-01
1.8247000E+00 8.3555795056E-01
****
$end


