$molecule
0 1
Ca  0.0000000000  0.0000000000  0.0000000000
$end


$rem
MEM_TOTAL 3750
MEM_STATIC 1500
SCF_CONVERGENCE 7
SCF_ALGORITHM  GDM
method DSD-PBEPBE-D3
GEN_SCFMAN TRUE
UNRESTRICTED True
THRESH  14
SYMMETRY FALSE
SYM_IGNORE TRUE
max_scf_cycles 200

XC_GRID 000250000974
BASIS GEN
PURECART 11111


$end







$basis
Ca
S 6 1.00
4.2475397E+06 3.7518405750E-04
6.3601893E+05 2.8954421829E-03
1.4478569E+05 1.5227579030E-02
4.1034867E+04 6.4213567059E-02
1.3395050E+04 2.3316057939E-01
4.8375583E+03 7.5423414203E-01
S 1 1.00
1.8870397E+03 1.0E+00
S 1 1.00
7.8254999E+02 1.0E+00
S 1 1.00
3.4100711E+02 1.0E+00
S 1 1.00
1.5468661E+02 1.0E+00
S 1 1.00
7.2427995E+01 1.0E+00
S 1 1.00
3.4396115E+01 1.0E+00
S 1 1.00
1.5170146E+01 1.0E+00
S 1 1.00
7.3865864E+00 1.0E+00
S 1 1.00
3.5829247E+00 1.0E+00
S 1 1.00
1.5642882E+00 1.0E+00
S 1 1.00
7.4791890E-01 1.0E+00
S 1 1.00
3.3814534E-01 1.0E+00
S 1 1.00
6.7000193E-02 1.0E+00
S 1 1.00
2.6513478E-02 1.0E+00
P 3 1.00
2.6834654E+03 1.9058669405E-02
6.3605656E+02 1.6440035409E-01
2.0595354E+02 8.7502582855E-01
P 1 1.00
7.7952166E+01 1.0E+00
P 1 1.00
3.2483785E+01 1.0E+00
P 1 1.00
1.4295789E+01 1.0E+00
P 1 1.00
6.5044100E+00 1.0E+00
P 1 1.00
3.0043287E+00 1.0E+00
P 1 1.00
1.3045206E+00 1.0E+00
P 1 1.00
5.5433908E-01 1.0E+00
P 1 1.00
2.2248372E-01 1.0E+00
P 1 1.00
8.9000000E-02 1.0E+00
P 1 1.00
3.5600000E-02 1.0E+00
D 2 1.00
1.9972000E+02 6.1073158169E-01
7.2624000E+01 4.8859351235E-01
D 2 1.00
4.7475000E+01 5.0816878996E-01
2.1100000E+01 5.5897995555E-01
D 2 1.00
1.7156000E+01 6.2647871576E-01
7.6249000E+00 4.3853275317E-01
D 2 1.00
6.5463000E+00 9.2802266247E-01
2.9095000E+00 9.2802266247E-02
D 2 1.00
2.5160000E+00 6.6418970635E-01
1.1182000E+00 3.9851880218E-01
D 2 1.00
1.1691000E+00 6.2647715857E-01
5.1961000E-01 4.3853166315E-01
D 2 1.00
5.5553000E-01 5.2661116438E-01
2.7159000E-01 5.2661116438E-01
D 2 1.00
1.7069000E-01 5.3366080218E-01
7.5860000E-02 5.3366080218E-01
D 2 1.00
8.8420000E-02 5.3365810061E-01
3.9298000E-02 5.3365810061E-01
F 2 1.00
1.0636000E+02 5.0157292074E-01
4.2975000E+01 6.0188205528E-01
F 2 1.00
3.5274000E+01 5.3388492274E-01
1.7245000E+01 5.3388492274E-01
F 2 1.00
1.4939000E+01 5.4271940656E-01
6.6395000E+00 5.4271940656E-01
F 2 1.00
4.9159000E+00 5.4271614556E-01
2.1849000E+00 5.4271614556E-01
F 2 1.00
2.3396000E+00 5.4272066139E-01
1.0398000E+00 5.4272066139E-01
F 2 1.00
9.1860000E-01 5.4271781131E-01
4.0827000E-01 5.4271781131E-01
G 2 1.00
3.4867000E+01 5.0091607525E-01
1.5497000E+01 6.0109929030E-01
G 2 1.00
6.0438000E+00 5.6086930560E-01
2.4796000E+00 5.6086930560E-01
G 2 1.00
2.0473000E+00 7.0104230068E-01
9.0993000E-01 3.9257935193E-01
H 2 1.00
2.6730000E+01 8.3912994730E-01
2.3095000E+00 5.2865377193E-01
H 2 1.00
2.3760000E+00 8.3142907688E-01
1.0560000E+00 2.4942426906E-01
****
$end


