$molecule
0 1
Zn  0.0000000000  0.0000000000  0.0000000000
$end


$rem
MEM_TOTAL 3750
MEM_STATIC 1500
SCF_CONVERGENCE 7
SCF_ALGORITHM  GDM
method DSD-PBEPBE-D3
GEN_SCFMAN TRUE
UNRESTRICTED True
THRESH  14
SYMMETRY FALSE
SYM_IGNORE TRUE
max_scf_cycles 200
AUX_BASIS_CORR rimp2-def2-QZVPPD
N_FROZEN_CORE 0

XC_GRID 000250000974
BASIS GEN
PURECART 11111


$end







$basis
Zn
S 6 1.00
1.0036228E+07 3.6962287940E-04
1.5021900E+06 2.8968118688E-03
3.4177987E+05 1.5223305103E-02
9.6815713E+04 6.4254209849E-02
3.1600670E+04 2.3325782454E-01
1.1419196E+04 7.5408224926E-01
S 1 1.00
4.4592400E+03 1.0E+00
S 1 1.00
1.8517321E+03 1.0E+00
S 1 1.00
8.0820050E+02 1.0E+00
S 1 1.00
3.6736355E+02 1.0E+00
S 1 1.00
1.7250466E+02 1.0E+00
S 1 1.00
8.2415142E+01 1.0E+00
S 1 1.00
3.7105785E+01 1.0E+00
S 1 1.00
1.8577586E+01 1.0E+00
S 1 1.00
9.2028953E+00 1.0E+00
S 1 1.00
4.1350531E+00 1.0E+00
S 1 1.00
1.9567275E+00 1.0E+00
S 1 1.00
8.7032522E-01 1.0E+00
S 1 1.00
1.5045184E-01 1.0E+00
S 1 1.00
5.1406731E-02 1.0E+00
P 3 1.00
6.9201524E+03 1.8568962824E-02
1.6398846E+03 1.6150419009E-01
5.3161577E+02 8.7734533805E-01
P 1 1.00
2.0201491E+02 1.0E+00
P 1 1.00
8.4740899E+01 1.0E+00
P 1 1.00
3.7761549E+01 1.0E+00
P 1 1.00
1.7491794E+01 1.0E+00
P 1 1.00
8.1920706E+00 1.0E+00
P 1 1.00
3.6875273E+00 1.0E+00
P 1 1.00
1.5909855E+00 1.0E+00
P 1 1.00
6.3578479E-01 1.0E+00
P 1 1.00
2.5407015E-01 1.0E+00
P 1 1.00
1.0153070E-01 1.0E+00
D 1 1.00
3.0546118E+02 1.0E+00
D 1 1.00
9.1534489E+01 1.0E+00
D 1 1.00
3.5008941E+01 1.0E+00
D 1 1.00
1.4857413E+01 1.0E+00
D 1 1.00
6.6907118E+00 1.0E+00
D 1 1.00
3.0347783E+00 1.0E+00
D 1 1.00
1.3377787E+00 1.0E+00
D 1 1.00
5.5971798E-01 1.0E+00
D 1 1.00
2.1206946E-01 1.0E+00
F 2 1.00
1.0727000E+02 5.1677053335E-01
4.7676000E+01 5.6844568231E-01
F 2 1.00
3.5368000E+01 6.3673184578E-01
1.5719000E+01 4.4570759915E-01
F 2 1.00
1.2059000E+01 5.2652690375E-01
6.4314000E+00 5.2652690375E-01
F 2 1.00
5.4270000E+00 5.1134442519E-01
3.6180000E+00 5.1134442519E-01
F 2 1.00
2.6867000E+00 5.3462621121E-01
1.3026000E+00 5.3462621121E-01
F 2 1.00
8.5815000E-01 5.4271859915E-01
3.8140000E-01 5.4271859915E-01
G 2 1.00
5.0864000E+01 8.7066710675E-01
1.3911000E+01 2.7861347416E-01
G 2 1.00
1.1542000E+01 4.6974571268E-01
5.6429000E+00 6.1067794408E-01
G 2 1.00
4.6434000E+00 5.6391665700E-01
1.8574000E+00 5.6391665700E-01
H 2 1.00
1.6671000E+01 3.3289379077E-01
7.4093000E+00 7.6564204660E-01
H 2 1.00
5.7948000E+00 5.3318379564E-01
2.5755000E+00 5.8650122311E-01
****
$end


