$molecule
0 1
Ba  0.0000000000  0.0000000000  0.0000000000
$end


$rem
MEM_TOTAL 3750
MEM_STATIC 1500
SCF_CONVERGENCE 7
SCF_ALGORITHM  GDM
method DSD-PBEPBE-D3
GEN_SCFMAN TRUE
UNRESTRICTED True
THRESH  14
SYMMETRY FALSE
SYM_IGNORE TRUE
max_scf_cycles 200

XC_GRID 000250000974
BASIS GEN
PURECART 11111


$end







$basis
Ba
S 9 1.00
7.1499453E+07 1.6388348446E-05
1.0717406E+07 1.2564400475E-04
2.4408109E+06 6.6190718446E-04
6.9209722E+05 2.7923924824E-03
2.2593169E+05 1.0174432993E-02
8.1569787E+04 3.3171838181E-02
3.1803310E+04 9.8661499500E-02
1.3185095E+04 2.6871974947E-01
5.7516947E+03 6.6260004741E-01
S 1 1.00
2.6191607E+03 1.0E+00
S 1 1.00
1.2369060E+03 1.0E+00
S 1 1.00
6.0200359E+02 1.0E+00
S 1 1.00
2.9852039E+02 1.0E+00
S 1 1.00
1.4313636E+02 1.0E+00
S 1 1.00
7.4811808E+01 1.0E+00
S 1 1.00
3.8707454E+01 1.0E+00
S 1 1.00
1.8699485E+01 1.0E+00
S 1 1.00
1.0350772E+01 1.0E+00
S 1 1.00
5.4609310E+00 1.0E+00
S 1 1.00
2.7297672E+00 1.0E+00
S 1 1.00
1.3875116E+00 1.0E+00
S 1 1.00
4.7737560E-01 1.0E+00
S 1 1.00
2.1865844E-01 1.0E+00
S 1 1.00
4.1860229E-02 1.0E+00
S 1 1.00
1.8105680E-02 1.0E+00
P 6 1.00
9.5598748E+04 3.0018258094E-04
2.2631767E+04 2.6740588832E-03
7.3535390E+03 1.5515382913E-02
2.8166312E+03 6.9235084034E-02
1.1984517E+03 2.5042772380E-01
5.4922731E+02 7.3559741460E-01
P 1 1.00
2.6589659E+02 1.0E+00
P 1 1.00
1.3389949E+02 1.0E+00
P 1 1.00
6.9439929E+01 1.0E+00
P 1 1.00
3.6462451E+01 1.0E+00
P 1 1.00
1.9070599E+01 1.0E+00
P 1 1.00
1.0187967E+01 1.0E+00
P 1 1.00
5.3232676E+00 1.0E+00
P 1 1.00
2.7355332E+00 1.0E+00
P 1 1.00
1.3912554E+00 1.0E+00
P 1 1.00
6.2051999E-01 1.0E+00
P 1 1.00
2.8359367E-01 1.0E+00
P 1 1.00
1.1890989E-01 1.0E+00
D 4 1.00
3.0478095E+03 3.6589779062E-03
9.2216800E+02 3.5701677629E-02
3.6029090E+02 2.0706046310E-01
1.6021327E+02 8.1905193322E-01
D 1 1.00
7.6773794E+01 1.0E+00
D 1 1.00
3.8570142E+01 1.0E+00
D 1 1.00
1.9832564E+01 1.0E+00
D 1 1.00
1.0377303E+01 1.0E+00
D 1 1.00
5.3719532E+00 1.0E+00
D 1 1.00
2.7068545E+00 1.0E+00
D 1 1.00
1.3245804E+00 1.0E+00
D 1 1.00
5.8812118E-01 1.0E+00
F 2 1.00
1.9271000E+02 3.9787718920E-01
7.7572000E+01 6.9827446705E-01
F 2 1.00
5.4180000E+01 3.9064441044E-01
2.4080000E+01 6.8753416237E-01
F 2 1.00
1.9530000E+01 3.2494284084E-01
8.5933000E+00 7.4736853394E-01
F 2 1.00
6.2694000E+00 4.1128013749E-01
2.7956000E+00 6.6813236985E-01
F 2 1.00
1.7294000E+00 5.5138274595E-01
7.0455000E-01 5.5138274595E-01
G 2 1.00
1.4333000E+02 1.1287799974E-01
4.7775000E+01 9.4375653482E-01
G 2 1.00
2.9938000E+01 5.3575030039E-01
1.2096000E+01 5.8932533043E-01
G 2 1.00
5.9765000E+00 5.7116665377E-01
2.7072000E+00 5.2734673526E-01
H 2 1.00
8.3790000E+01 2.5882200731E-01
3.3600000E+01 8.4091798685E-01
H 2 1.00
7.3500000E+00 5.8525112776E-01
3.4335000E+00 5.2154141568E-01
****
$end


