$molecule
0 1
Kr  0.0000000000  0.0000000000  0.0000000000
$end


$rem
MEM_TOTAL 3750
MEM_STATIC 1500
SCF_CONVERGENCE 7
SCF_ALGORITHM  GDM
method DSD-PBEPBE-D3
GEN_SCFMAN TRUE
UNRESTRICTED True
THRESH  14
SYMMETRY FALSE
SYM_IGNORE TRUE
max_scf_cycles 200
AUX_BASIS_CORR rimp2-def2-QZVPPD
N_FROZEN_CORE 0

XC_GRID 000250000974
BASIS GEN
PURECART 11111


$end







$basis
Kr
S 6 1.00
1.1707591E+07 3.6981648563E-04
1.7530660E+06 2.8990970927E-03
3.9894461E+05 1.5241722301E-02
1.1299920E+05 6.4328256903E-02
3.6864908E+04 2.3347307202E-01
1.3308700E+04 7.5390392529E-01
S 1 1.00
5.1908150E+03 1.0E+00
S 1 1.00
2.1530297E+03 1.0E+00
S 1 1.00
9.3903602E+02 1.0E+00
S 1 1.00
4.2714550E+02 1.0E+00
S 1 1.00
2.0138050E+02 1.0E+00
S 1 1.00
9.7253536E+01 1.0E+00
S 1 1.00
4.3055680E+01 1.0E+00
S 1 1.00
2.1209810E+01 1.0E+00
S 1 1.00
1.0445680E+01 1.0E+00
S 1 1.00
4.5907630E+00 1.0E+00
S 1 1.00
2.1202840E+00 1.0E+00
S 1 1.00
7.0817700E-01 1.0E+00
S 1 1.00
3.5037800E-01 1.0E+00
S 1 1.00
1.4518900E-01 1.0E+00
P 4 1.00
2.0288003E+04 3.8788790968E-03
4.8044380E+03 3.4308016839E-02
1.5600440E+03 1.9485207717E-01
5.9601679E+02 8.2972462147E-01
P 1 1.00
2.5221070E+02 1.0E+00
P 1 1.00
1.1453100E+02 1.0E+00
P 1 1.00
5.4473227E+01 1.0E+00
P 1 1.00
2.6767730E+01 1.0E+00
P 1 1.00
1.3294320E+01 1.0E+00
P 1 1.00
6.4650530E+00 1.0E+00
P 1 1.00
3.1176790E+00 1.0E+00
P 1 1.00
1.4886490E+00 1.0E+00
P 1 1.00
6.3560500E-01 1.0E+00
P 1 1.00
2.6124400E-01 1.0E+00
P 1 1.00
1.0160800E-01 1.0E+00
D 2 1.00
6.6548530E+02 1.0257064403E-01
2.0021573E+02 9.3984055189E-01
D 1 1.00
7.7557880E+01 1.0E+00
D 1 1.00
3.3683689E+01 1.0E+00
D 1 1.00
1.5627280E+01 1.0E+00
D 1 1.00
7.4430590E+00 1.0E+00
D 1 1.00
3.5330890E+00 1.0E+00
D 1 1.00
1.6359300E+00 1.0E+00
D 1 1.00
6.7822592E-01 1.0E+00
F 2 1.00
1.1289000E+02 4.8019121739E-01
4.5155000E+01 6.2424327389E-01
F 2 1.00
3.1840000E+01 4.0915810422E-01
1.5566000E+01 6.5465145894E-01
F 2 1.00
1.1578000E+01 5.3388231801E-01
5.6605000E+00 5.3388231801E-01
F 2 1.00
4.1682000E+00 6.7465569878E-01
1.8525000E+00 4.0479093307E-01
F 2 1.00
1.1207700E+00 5.4271859915E-01
4.9812000E-01 5.4271859915E-01
G 2 1.00
1.0302000E+02 5.1099008706E-01
4.1622000E+01 6.1319736994E-01
G 2 1.00
2.1829000E+01 4.3132505752E-01
1.0672000E+01 6.4699540723E-01
G 2 1.00
8.0041000E+00 6.6146391094E-01
3.5574000E+00 4.3656618122E-01
G 2 1.00
1.4400000E+00 5.5150475947E-01
6.4000000E-01 5.5150475947E-01
H 2 1.00
2.5515000E+01 4.3660683364E-01
1.2474000E+01 6.5490635225E-01
H 2 1.00
1.0395000E+01 6.5624011945E-01
4.6200000E+00 4.5935988076E-01
****
$end


