$molecule
0 1
Xe  0.0000000000  0.0000000000  0.0000000000
$end


$rem
MEM_TOTAL 3750
MEM_STATIC 1500
SCF_CONVERGENCE 7
SCF_ALGORITHM  GDM
method DSD-PBEPBE-D3
GEN_SCFMAN TRUE
UNRESTRICTED True
THRESH  14
SYMMETRY FALSE
SYM_IGNORE TRUE
max_scf_cycles 200
AUX_BASIS_CORR rimp2-def2-QZVPPD
N_FROZEN_CORE 0

XC_GRID 000250000974
BASIS GEN
PURECART 11111


$end







$basis
Xe
S 7 1.00
3.7439585E+07 1.2285941795E-04
5.6057165E+06 9.4302904845E-04
1.2758600E+06 4.9575435180E-03
3.6147968E+05 2.0932588140E-02
1.1798538E+05 7.6063262014E-02
4.2623784E+04 2.4646263231E-01
1.6638808E+04 7.2270889337E-01
S 1 1.00
6.9076680E+03 1.0E+00
S 1 1.00
3.0152337E+03 1.0E+00
S 1 1.00
1.3717066E+03 1.0E+00
S 1 1.00
6.4544844E+02 1.0E+00
S 1 1.00
3.1053943E+02 1.0E+00
S 1 1.00
1.4623464E+02 1.0E+00
S 1 1.00
7.4724633E+01 1.0E+00
S 1 1.00
3.7723814E+01 1.0E+00
S 1 1.00
1.7656358E+01 1.0E+00
S 1 1.00
9.6316740E+00 1.0E+00
S 1 1.00
4.9814157E+00 1.0E+00
S 1 1.00
2.4157583E+00 1.0E+00
S 1 1.00
1.1858631E+00 1.0E+00
S 1 1.00
3.3988109E-01 1.0E+00
S 1 1.00
1.3288526E-01 1.0E+00
P 6 1.00
8.4253824E+04 3.0461279929E-04
1.9944503E+04 2.7158794937E-03
6.4789959E+03 1.5742600963E-02
2.4811909E+03 7.0054157837E-02
1.0553710E+03 2.5207764941E-01
4.8336478E+02 7.3350837830E-01
P 1 1.00
2.3368637E+02 1.0E+00
P 1 1.00
1.1739522E+02 1.0E+00
P 1 1.00
6.0644868E+01 1.0E+00
P 1 1.00
3.1632234E+01 1.0E+00
P 1 1.00
1.6468642E+01 1.0E+00
P 1 1.00
8.7314967E+00 1.0E+00
P 1 1.00
4.4907264E+00 1.0E+00
P 1 1.00
2.2739572E+00 1.0E+00
P 1 1.00
1.1331476E+00 1.0E+00
P 1 1.00
4.7585012E-01 1.0E+00
P 1 1.00
2.0260758E-01 1.0E+00
P 1 1.00
8.1601549E-02 1.0E+00
D 4 1.00
2.5828871E+03 3.8060700879E-03
7.8117304E+02 3.6876859883E-02
3.0506057E+02 2.1087190933E-01
1.3539201E+02 8.1543233741E-01
D 1 1.00
6.4697561E+01 1.0E+00
D 1 1.00
3.2339035E+01 1.0E+00
D 1 1.00
1.6524716E+01 1.0E+00
D 1 1.00
8.5687077E+00 1.0E+00
D 1 1.00
4.3736847E+00 1.0E+00
D 1 1.00
2.1626607E+00 1.0E+00
D 1 1.00
1.0316750E+00 1.0E+00
D 1 1.00
4.3589724E-01 1.0E+00
F 2 1.00
1.8353000E+02 3.7042313947E-01
7.3878000E+01 7.2232511897E-01
F 2 1.00
5.1600000E+01 3.9064533130E-01
2.2933000E+01 6.8753578229E-01
F 2 1.00
1.8600000E+01 5.3388393016E-01
9.0934000E+00 5.3388393016E-01
F 2 1.00
5.9709000E+00 3.2220308073E-01
2.6625000E+00 7.4774084170E-01
F 2 1.00
1.6470000E+00 5.5137978612E-01
6.7100000E-01 5.5137978612E-01
G 2 1.00
1.3650000E+02 1.1287773974E-01
4.5500000E+01 9.4375434785E-01
G 2 1.00
2.5920000E+01 5.2511366811E-01
1.1520000E+01 5.7762503792E-01
G 2 1.00
5.6919000E+00 5.0977835007E-01
2.5783000E+00 5.8833280008E-01
H 2 1.00
7.9800000E+01 1.9118018385E-01
3.2000000E+01 8.8735474215E-01
H 2 1.00
7.0000000E+00 4.4360977970E-01
3.2700000E+00 6.5886008747E-01
****
$end


