$molecule
0 1
Cd  0.0000000000  0.0000000000  0.0000000000
$end


$rem
MEM_TOTAL 3750
MEM_STATIC 1500
SCF_CONVERGENCE 7
SCF_ALGORITHM  GDM
method DSD-PBEPBE-D3
GEN_SCFMAN TRUE
UNRESTRICTED True
THRESH  14
SYMMETRY FALSE
SYM_IGNORE TRUE
max_scf_cycles 200

XC_GRID 000250000974
BASIS GEN
PURECART 11111


$end







$basis
Cd
S 7 1.00
2.7798601E+07 1.1960752010E-04
4.1614937E+06 9.4152586080E-04
9.4663915E+05 4.9499112042E-03
2.6811296E+05 2.0903714018E-02
8.7479457E+04 7.5984511065E-02
3.1578049E+04 2.4643749021E-01
1.2309912E+04 7.2292319062E-01
S 1 1.00
5.1009277E+03 1.0E+00
S 1 1.00
2.2216338E+03 1.0E+00
S 1 1.00
1.0082215E+03 1.0E+00
S 1 1.00
4.7315851E+02 1.0E+00
S 1 1.00
2.2661180E+02 1.0E+00
S 1 1.00
1.0365508E+02 1.0E+00
S 1 1.00
5.2902584E+01 1.0E+00
S 1 1.00
2.6589232E+01 1.0E+00
S 1 1.00
1.2000641E+01 1.0E+00
S 1 1.00
6.2932217E+00 1.0E+00
S 1 1.00
3.0755272E+00 1.0E+00
S 1 1.00
1.4801296E+00 1.0E+00
S 1 1.00
6.5817762E-01 1.0E+00
S 1 1.00
1.2110287E-01 1.0E+00
S 1 1.00
4.3345704E-02 1.0E+00
P 5 1.00
4.6576029E+04 1.0162158985E-03
1.1028745E+04 9.0266301864E-03
3.5821094E+03 5.1843466922E-02
1.3702464E+03 2.2587283966E-01
5.8134960E+02 7.8102567882E-01
P 1 1.00
2.6523227E+02 1.0E+00
P 1 1.00
1.2731727E+02 1.0E+00
P 1 1.00
6.3392482E+01 1.0E+00
P 1 1.00
3.2200453E+01 1.0E+00
P 1 1.00
1.6121989E+01 1.0E+00
P 1 1.00
8.2122755E+00 1.0E+00
P 1 1.00
4.1755461E+00 1.0E+00
P 1 1.00
2.0356164E+00 1.0E+00
P 1 1.00
9.3921773E-01 1.0E+00
P 1 1.00
3.9410101E-01 1.0E+00
D 3 1.00
1.5762473E+03 1.6954563987E-02
4.7586314E+02 1.6068832987E-01
1.8535717E+02 8.7837133931E-01
D 1 1.00
8.1626757E+01 1.0E+00
D 1 1.00
3.8598673E+01 1.0E+00
D 1 1.00
1.8940042E+01 1.0E+00
D 1 1.00
9.4586447E+00 1.0E+00
D 1 1.00
4.7421020E+00 1.0E+00
D 1 1.00
2.3008192E+00 1.0E+00
D 1 1.00
1.0598989E+00 1.0E+00
D 1 1.00
4.6063145E-01 1.0E+00
D 1 1.00
1.8170410E-01 1.0E+00
F 2 1.00
1.5600000E+02 4.4713709502E-01
6.2796000E+01 6.5380386034E-01
F 2 1.00
4.3860000E+01 4.1175438485E-01
2.1442000E+01 6.5221894560E-01
F 2 1.00
1.5810000E+01 5.3388381548E-01
7.7294000E+00 5.3388381548E-01
F 2 1.00
4.5678000E+00 3.1746482335E-01
2.2631000E+00 7.3675092182E-01
F 2 1.00
1.4000000E+00 5.8022998653E-01
5.7035000E-01 5.2220698788E-01
G 2 1.00
1.2762000E+02 1.1357528828E-01
3.8675000E+01 9.4958646287E-01
G 2 1.00
2.2032000E+01 5.8644844743E-01
9.7920000E+00 5.1607463374E-01
G 2 1.00
4.8381000E+00 4.8340192395E-01
2.1916000E+00 6.1368469279E-01
H 2 1.00
6.1047000E+01 1.9118018339E-01
2.4480000E+01 8.8735474245E-01
H 2 1.00
5.9500000E+00 2.1557148361E-01
2.5015000E+00 8.6447087643E-01
****
$end


