$molecule
0 1
Hg  0.0000000000  0.0000000000  0.0000000000
$end


$rem
MEM_TOTAL 3750
MEM_STATIC 1500
SCF_CONVERGENCE 7
SCF_ALGORITHM  GDM
method DSD-PBEPBE-D3
GEN_SCFMAN TRUE
UNRESTRICTED True
THRESH  14
SYMMETRY FALSE
SYM_IGNORE TRUE
max_scf_cycles 200
AUX_BASIS_CORR rimp2-def2-QZVPPD
N_FROZEN_CORE 0

XC_GRID 000250000974
BASIS GEN
PURECART 11111


$end







$basis
Hg
S 9 1.00
1.4958774E+08 1.5842336429E-05
2.2393003E+07 1.2580678929E-04
5.0946493E+06 6.6071861932E-04
1.4427714E+06 2.7938426244E-03
4.7075245E+05 1.0174507596E-02
1.7004533E+05 3.3129121181E-02
6.6369232E+04 9.8412593900E-02
2.7541497E+04 2.6812315695E-01
1.2016091E+04 6.6334937907E-01
S 1 1.00
5.4667751E+03 1.0E+00
S 1 1.00
2.5768823E+03 1.0E+00
S 1 1.00
1.2512086E+03 1.0E+00
S 1 1.00
6.1935949E+02 1.0E+00
S 1 1.00
2.9572342E+02 1.0E+00
S 1 1.00
1.5550957E+02 1.0E+00
S 1 1.00
8.1428323E+01 1.0E+00
S 1 1.00
3.9720412E+01 1.0E+00
S 1 1.00
2.1807445E+01 1.0E+00
S 1 1.00
1.1020328E+01 1.0E+00
S 1 1.00
5.8899305E+00 1.0E+00
S 1 1.00
3.0615341E+00 1.0E+00
S 1 1.00
1.3844972E+00 1.0E+00
S 1 1.00
6.1592243E-01 1.0E+00
S 1 1.00
1.1612293E-01 1.0E+00
S 1 1.00
4.2127899E-02 1.0E+00
P 5 1.00
2.1821697E+05 9.2179354860E-04
5.1650545E+04 8.2292610176E-03
1.6773916E+04 4.7933264529E-02
6.4213802E+03 2.1573458477E-01
2.7307593E+03 7.9229754829E-01
P 1 1.00
1.2510000E+03 1.0E+00
P 1 1.00
6.0596182E+02 1.0E+00
P 1 1.00
3.0597796E+02 1.0E+00
P 1 1.00
1.5955795E+02 1.0E+00
P 1 1.00
8.4827931E+01 1.0E+00
P 1 1.00
4.5415895E+01 1.0E+00
P 1 1.00
2.4720982E+01 1.0E+00
P 1 1.00
1.3181352E+01 1.0E+00
P 1 1.00
6.9533623E+00 1.0E+00
P 1 1.00
3.6479272E+00 1.0E+00
P 1 1.00
1.7846103E+00 1.0E+00
P 1 1.00
8.3332370E-01 1.0E+00
P 1 1.00
3.5113009E-01 1.0E+00
D 4 1.00
7.6644174E+03 3.3499961472E-03
2.3224590E+03 3.3270237114E-02
9.0933850E+02 1.9883095383E-01
4.0626665E+02 8.2673455134E-01
D 1 1.00
1.9637313E+02 1.0E+00
D 1 1.00
9.9985307E+01 1.0E+00
D 1 1.00
5.2488409E+01 1.0E+00
D 1 1.00
2.8119902E+01 1.0E+00
D 1 1.00
1.4997504E+01 1.0E+00
D 1 1.00
7.8520808E+00 1.0E+00
D 1 1.00
4.0690279E+00 1.0E+00
D 1 1.00
1.9947695E+00 1.0E+00
D 1 1.00
9.3288740E-01 1.0E+00
D 1 1.00
4.1012623E-01 1.0E+00
D 1 1.00
1.6359022E-01 1.0E+00
F 4 1.00
8.5501014E+02 4.3297568445E-03
3.0225011E+02 4.2425915699E-02
1.3150618E+02 2.3082461115E-01
6.3461858E+01 7.9767957877E-01
F 1 1.00
3.2261089E+01 1.0E+00
F 1 1.00
1.6875809E+01 1.0E+00
F 1 1.00
8.8193196E+00 1.0E+00
F 1 1.00
4.5464823E+00 1.0E+00
F 2 1.00
2.2350019E+00 8.7762055229E-01
9.7613371E-01 1.6733945358E-01
G 3 1.00
6.6503814E+01 1.7382232636E-01
3.6982027E+01 1.6892050665E-01
2.0359639E+01 7.6481823621E-01
G 2 1.00
1.2208727E+01 6.0693709791E-01
4.7907126E+00 5.2471594915E-01
H 2 1.00
3.0648336E+01 3.6353961969E-01
1.2408867E+01 7.5982821310E-01
****
$end


