$molecule
0 1
Yb  0.0000000000  0.0000000000  0.0000000000
$end


$rem
MEM_TOTAL 3750
SCF_ALGORITHM GDM_QLS
MEM_STATIC 1500
SCF_CONVERGENCE 6
method DSD-PBEPBE-D3
GEN_SCFMAN TRUE
UNRESTRICTED True
THRESH  14
SYMMETRY FALSE
SYM_IGNORE TRUE
max_scf_cycles 200

XC_GRID 000250000974
BASIS GEN
PURECART 11111


$end







$basis
Yb
S 9 1.00
1.1198427E+08 1.6502009422E-05
1.6766360E+07 1.2651540556E-04
3.8158293E+06 6.6741460326E-04
1.0811895E+06 2.8190932761E-03
3.5292996E+05 1.0262416304E-02
1.2753759E+05 3.3386315394E-02
4.9817050E+04 9.8981802846E-02
2.0703078E+04 2.6875630932E-01
9.0513529E+03 6.6188459655E-01
S 1 1.00
4.1274625E+03 1.0E+00
S 1 1.00
1.9496820E+03 1.0E+00
S 1 1.00
9.4823146E+02 1.0E+00
S 1 1.00
4.6981422E+02 1.0E+00
S 1 1.00
2.2445359E+02 1.0E+00
S 1 1.00
1.1778044E+02 1.0E+00
S 1 1.00
6.1404389E+01 1.0E+00
S 1 1.00
2.9844449E+01 1.0E+00
S 1 1.00
1.6466047E+01 1.0E+00
S 1 1.00
8.4981141E+00 1.0E+00
S 1 1.00
4.3974788E+00 1.0E+00
S 1 1.00
2.2317276E+00 1.0E+00
S 1 1.00
7.6356625E-01 1.0E+00
S 1 1.00
3.2931684E-01 1.0E+00
S 1 1.00
5.4969632E-02 1.0E+00
S 1 1.00
2.2714740E-02 1.0E+00
P 5 1.00
1.5044923E+05 9.4103558601E-04
3.5609855E+04 8.3817238763E-03
1.1568597E+04 4.8678569543E-02
4.4306777E+03 2.1764200956E-01
1.8850131E+03 7.9008947359E-01
P 1 1.00
8.6370739E+02 1.0E+00
P 1 1.00
4.1806663E+02 1.0E+00
P 1 1.00
2.1065362E+02 1.0E+00
P 1 1.00
1.0937402E+02 1.0E+00
P 1 1.00
5.7627188E+01 1.0E+00
P 1 1.00
3.0652508E+01 1.0E+00
P 1 1.00
1.6527901E+01 1.0E+00
P 1 1.00
8.6550740E+00 1.0E+00
P 1 1.00
4.4493031E+00 1.0E+00
P 1 1.00
2.2398777E+00 1.0E+00
P 1 1.00
9.8664659E-01 1.0E+00
P 1 1.00
4.3586458E-01 1.0E+00
P 1 1.00
1.7940624E-01 1.0E+00
D 4 1.00
5.1270768E+03 3.5384741166E-03
1.5528676E+03 3.4785899146E-02
6.0767673E+02 2.0408384456E-01
2.7102491E+02 8.2171282799E-01
D 1 1.00
1.3058672E+02 1.0E+00
D 1 1.00
6.6119289E+01 1.0E+00
D 1 1.00
3.4432912E+01 1.0E+00
D 1 1.00
1.8236085E+01 1.0E+00
D 1 1.00
9.5476061E+00 1.0E+00
D 1 1.00
4.8492574E+00 1.0E+00
D 1 1.00
2.3673340E+00 1.0E+00
D 1 1.00
1.0255241E+00 1.0E+00
F 4 1.00
4.0901779E+02 6.1047468363E-03
1.4280188E+02 5.4745546982E-02
6.1368554E+01 2.5876546165E-01
2.8756903E+01 7.7170423859E-01
F 1 1.00
1.4163548E+01 1.0E+00
F 1 1.00
7.0427476E+00 1.0E+00
F 1 1.00
3.4394427E+00 1.0E+00
F 1 1.00
1.6161458E+00 1.0E+00
F 2 1.00
7.0980472E-01 8.1741733853E-01
2.7806373E-01 2.6026017127E-01
G 1 1.00
6.7184000E+01 1.0E+00
G 2 1.00
6.3150000E+01 4.8963366020E-01
1.2474000E+01 7.8204398922E-01
G 2 1.00
4.9014000E+00 6.0227239003E-01
1.7484660E+00 5.5344724027E-01
H 3 1.00
2.1439000E+01 2.4038857473E-01
8.6802000E+00 7.1776038705E-01
3.1663000E+00 2.5996173020E-01
****
$end


