$molecule
0 1
Rn  0.0000000000  0.0000000000  0.0000000000
$end


$rem
MEM_TOTAL 3750
MEM_STATIC 1500
SCF_CONVERGENCE 7
SCF_ALGORITHM  GDM
method DSD-PBEPBE-D3
GEN_SCFMAN TRUE
UNRESTRICTED True
THRESH  14
SYMMETRY FALSE
SYM_IGNORE TRUE
max_scf_cycles 200
AUX_BASIS_CORR rimp2-def2-QZVPPD
N_FROZEN_CORE 0

XC_GRID 000250000974
BASIS GEN
PURECART 11111


$end







$basis
Rn
S 9 1.00
2.3051489E+08 1.5341361593E-05
3.4505342E+07 1.2017399915E-04
7.8492703E+06 6.3283116573E-04
2.2227137E+06 2.6783460449E-03
7.2461765E+05 9.7788395691E-03
2.6124825E+05 3.2007194071E-02
1.0168558E+05 9.5825979853E-02
4.2056914E+04 2.6463337370E-01
1.8281557E+04 6.6999177885E-01
S 1 1.00
8.2852752E+03 1.0E+00
S 1 1.00
3.8906055E+03 1.0E+00
S 1 1.00
1.8834062E+03 1.0E+00
S 1 1.00
9.3485158E+02 1.0E+00
S 1 1.00
4.7122722E+02 1.0E+00
S 1 1.00
2.3970254E+02 1.0E+00
S 1 1.00
1.2464254E+02 1.0E+00
S 1 1.00
6.4812006E+01 1.0E+00
S 1 1.00
3.6096070E+01 1.0E+00
S 1 1.00
1.9433780E+01 1.0E+00
S 1 1.00
9.4536455E+00 1.0E+00
S 1 1.00
5.0681574E+00 1.0E+00
S 1 1.00
2.1238587E+00 1.0E+00
S 1 1.00
1.0603030E+00 1.0E+00
S 1 1.00
2.9209068E-01 1.0E+00
S 1 1.00
1.1757566E-01 1.0E+00
P 6 1.00
3.7578428E+05 2.6224387801E-04
8.8958277E+04 2.3437015764E-03
2.8908362E+04 1.3709252289E-02
1.1075032E+04 6.2541041574E-02
4.7134661E+03 2.3650769265E-01
2.1602079E+03 7.5349758282E-01
P 1 1.00
1.0465554E+03 1.0E+00
P 1 1.00
5.2882549E+02 1.0E+00
P 1 1.00
2.7599463E+02 1.0E+00
P 1 1.00
1.4736049E+02 1.0E+00
P 1 1.00
7.9393219E+01 1.0E+00
P 1 1.00
4.3783755E+01 1.0E+00
P 1 1.00
2.4122425E+01 1.0E+00
P 1 1.00
1.2908350E+01 1.0E+00
P 1 1.00
7.0122608E+00 1.0E+00
P 1 1.00
3.6610688E+00 1.0E+00
P 1 1.00
1.9135473E+00 1.0E+00
P 1 1.00
9.6853568E-01 1.0E+00
P 1 1.00
4.0893305E-01 1.0E+00
P 1 1.00
1.7778664E-01 1.0E+00
P 1 1.00
7.2969633E-02 1.0E+00
D 4 1.00
1.0860405E+04 3.1334964152E-03
3.2919901E+03 3.1471427020E-02
1.2897309E+03 1.9222468519E-01
5.7728208E+02 8.3301311563E-01
D 1 1.00
2.8009449E+02 1.0E+00
D 1 1.00
1.4351867E+02 1.0E+00
D 1 1.00
7.6004615E+01 1.0E+00
D 1 1.00
4.1255103E+01 1.0E+00
D 1 1.00
2.2448509E+01 1.0E+00
D 1 1.00
1.2021464E+01 1.0E+00
D 1 1.00
6.4390650E+00 1.0E+00
D 1 1.00
3.3476260E+00 1.0E+00
D 1 1.00
1.6860935E+00 1.0E+00
D 1 1.00
8.1418748E-01 1.0E+00
D 1 1.00
3.4636553E-01 1.0E+00
F 4 1.00
1.2136733E+03 3.7745919431E-03
4.3036536E+02 3.8382211765E-02
1.8808457E+02 2.1860888269E-01
9.1548981E+01 8.0898374447E-01
F 1 1.00
4.7050238E+01 1.0E+00
F 1 1.00
2.5009244E+01 1.0E+00
F 1 1.00
1.3362329E+01 1.0E+00
F 1 1.00
7.0957955E+00 1.0E+00
F 2 1.00
3.6393148E+00 8.7701555097E-01
1.7143822E+00 1.5981822213E-01
G 4 1.00
6.6381355E+01 1.0689434652E-01
2.8263330E+01 2.8246086590E-01
1.9003349E+01 2.8981412897E-01
1.0084069E+01 4.9685011642E-01
H 3 1.00
4.1341552E+01 2.3048520499E-01
1.8598139E+01 7.2466460622E-01
7.4625026E+00 2.1535365204E-01
****
$end


