$molecule
0 1
Sr  0.0000000000  0.0000000000  0.0000000000
$end


$rem
MEM_TOTAL 3750
MEM_STATIC 1500
SCF_CONVERGENCE 7
SCF_ALGORITHM  GDM
method DSD-PBEPBE-D3
GEN_SCFMAN TRUE
UNRESTRICTED True
THRESH  14
SYMMETRY FALSE
SYM_IGNORE TRUE
max_scf_cycles 200

XC_GRID 000250000974
BASIS GEN
PURECART 11111


$end







$basis
Sr
S 8 1.00
1.5985548E+07 4.4470262470E-05
2.3931854E+06 3.4464453414E-04
5.4464467E+05 1.8101418201E-03
1.5429021E+05 7.6428210182E-03
5.0349120E+04 2.7760561347E-02
1.8184310E+04 8.9827908814E-02
7.0970993E+03 2.6217140033E-01
2.9464767E+03 6.8620242780E-01
S 1 1.00
1.2864437E+03 1.0E+00
S 1 1.00
5.8542665E+02 1.0E+00
S 1 1.00
2.7553817E+02 1.0E+00
S 1 1.00
1.3219018E+02 1.0E+00
S 1 1.00
5.9580137E+01 1.0E+00
S 1 1.00
3.0224580E+01 1.0E+00
S 1 1.00
1.5159831E+01 1.0E+00
S 1 1.00
6.7795650E+00 1.0E+00
S 1 1.00
3.4176689E+00 1.0E+00
S 1 1.00
1.7071294E+00 1.0E+00
S 1 1.00
6.7914307E-01 1.0E+00
S 1 1.00
2.9464669E-01 1.0E+00
S 1 1.00
5.4229766E-02 1.0E+00
S 1 1.00
2.2434427E-02 1.0E+00
P 5 1.00
2.5229367E+04 1.0581410321E-03
5.9740406E+03 9.3781922815E-03
1.9402378E+03 5.3506933519E-02
7.4185179E+02 2.2991136361E-01
3.1435629E+02 7.7647747595E-01
P 1 1.00
1.4308897E+02 1.0E+00
P 1 1.00
6.8345426E+01 1.0E+00
P 1 1.00
3.3784356E+01 1.0E+00
P 1 1.00
1.6971216E+01 1.0E+00
P 1 1.00
8.3437696E+00 1.0E+00
P 1 1.00
4.0925275E+00 1.0E+00
P 1 1.00
2.0030386E+00 1.0E+00
P 1 1.00
8.8934060E-01 1.0E+00
P 1 1.00
3.9188734E-01 1.0E+00
P 1 1.00
1.6068572E-01 1.0E+00
D 2 1.00
8.2851015E+02 1.0134596601E-01
2.4952736E+02 9.4054975637E-01
D 1 1.00
9.6860307E+01 1.0E+00
D 1 1.00
4.2280922E+01 1.0E+00
D 1 1.00
1.9742789E+01 1.0E+00
D 1 1.00
9.5061705E+00 1.0E+00
D 1 1.00
4.5852401E+00 1.0E+00
D 1 1.00
2.1713036E+00 1.0E+00
D 1 1.00
9.3883631E-01 1.0E+00
D 1 1.00
3.7500000E-01 1.0E+00
F 2 1.00
2.1833000E+02 3.6117315159E-01
1.0317000E+02 7.0429310680E-01
F 2 1.00
6.2986000E+01 4.3008375396E-01
3.8491000E+01 6.0211725554E-01
F 2 1.00
2.6244000E+01 3.6518724366E-01
1.2960000E+01 6.9387729521E-01
F 2 1.00
9.7200000E+00 5.2333318988E-01
5.4000000E+00 5.2333318988E-01
F 2 1.00
4.5000000E+00 5.4271859915E-01
2.0000000E+00 5.4271859915E-01
F 2 1.00
1.2529000E+00 6.2448903687E-01
5.8511000E-01 4.4932868785E-01
G 2 1.00
3.2081000E+01 4.7078028397E-01
1.4823000E+01 6.2142525084E-01
G 2 1.00
1.0500000E+01 6.4665063377E-01
4.6667000E+00 4.5265544364E-01
G 2 1.00
1.2507000E+00 7.8998997895E-01
5.7900000E-01 2.8024813248E-01
H 2 1.00
3.1185000E+01 4.5535364485E-01
1.5246000E+01 6.3749185032E-01
H 2 1.00
1.3068000E+01 6.2125835565E-01
5.8080000E+00 4.9699780956E-01
****
$end


