$molecule
0 1
C  -0.3939014300  -1.6964423900  2.2788610000
Al  -0.2437994300  0.0099436100  1.3113690000
C  -0.2437994300  1.7956076100  2.1402800000
C  1.4565965700  -0.2171483900  0.0000000000
Al  -0.2437994300  0.0099436100  -1.3113690000
C  -0.3939014300  -1.6964423900  -2.2788610000
H  -1.3718734300  0.0303376100  0.0000000000
C  -0.2437994300  1.7956076100  -2.1402800000
H  -1.1869924300  1.9983506100  -2.6525720000
H  -0.0947454300  2.5927036100  -1.4091350000
H  0.5479285700  1.8876476100  -2.8883540000
H  -1.2995444300  -1.7336483900  -2.8882080000
H  0.4510045700  -1.8423363900  -2.9566750000
H  -0.4201144300  -2.5527243900  -1.6022410000
H  -1.1869924300  1.9983506100  2.6525720000
H  0.5479285700  1.8876476100  2.8883540000
H  -0.0947454300  2.5927036100  1.4091350000
H  -1.2995444300  -1.7336483900  2.8882080000
H  -0.4201144300  -2.5527243900  1.6022410000
H  0.4510045700  -1.8423363900  2.9566750000
H  1.9628285700  0.2665816100  0.8454240000
H  1.7575475700  -1.2645553900  0.0000000000
H  1.9628285700  0.2665816100  -0.8454240000
$end


$rem
N_FROZEN_CORE FC
MEM_TOTAL 15000
MEM_STATIC 6000
AUX_BASIS_CORR rimp2-def2-QZVPPD
SCF_CONVERGENCE 7
SCF_ALGORITHM  GDM
method DSD-PBEPBE-D3
GEN_SCFMAN TRUE
UNRESTRICTED True
THRESH  14
SYMMETRY FALSE
SYM_IGNORE TRUE
max_scf_cycles 200

XC_GRID 000099000590
BASIS DEF2-QZVPPD


$end










