$molecule
0 1
Al  0.0000000000  0.0000000000  -1.5954390000
Al  0.0000000000  0.0000000000  1.5954390000
Cl  0.0000000000  1.6230790000  0.0000000000
Cl  0.0000000000  -1.6230790000  0.0000000000
Cl  1.8212280000  0.0000000000  -2.6042940000
Cl  -1.8212280000  0.0000000000  -2.6042940000
Cl  -1.8212280000  0.0000000000  2.6042940000
Cl  1.8212280000  0.0000000000  2.6042940000
$end


$rem
N_FROZEN_CORE FC
MEM_TOTAL 3750
MEM_STATIC 1500
AUX_BASIS_CORR rimp2-def2-QZVPPD
SCF_CONVERGENCE 7
SCF_ALGORITHM  GDM
method DSD-PBEPBE-D3
GEN_SCFMAN TRUE
UNRESTRICTED True
THRESH  14
SYMMETRY FALSE
SYM_IGNORE TRUE
max_scf_cycles 200

XC_GRID 000099000590
BASIS DEF2-QZVPPD


$end










