$molecule
0 1
C  0.0000000000  1.9729930800  0.0000000000
Al  0.0000000000  0.0000000800  0.0000000000
C  1.7086620000  -0.9864959200  0.0000000000
C  -1.7086620000  -0.9864959200  0.0000000000
H  0.9998720000  2.4081310800  0.0000000000
H  -0.5306190000  2.3619040800  0.8735340000
H  -0.5306190000  2.3619040800  -0.8735340000
H  2.3107790000  -0.7214229200  -0.8735340000
H  2.3107790000  -0.7214229200  0.8735340000
H  1.5855670000  -2.0699799200  0.0000000000
H  -2.5854390000  -0.3381509200  0.0000000000
H  -1.7801600000  -1.6404819200  0.8735340000
H  -1.7801600000  -1.6404819200  -0.8735340000
$end


$rem
N_FROZEN_CORE FC
MEM_TOTAL 3750
MEM_STATIC 1500
AUX_BASIS_CORR rimp2-def2-QZVPPD
SCF_CONVERGENCE 7
SCF_ALGORITHM  GDM
method DSD-PBEPBE-D3
GEN_SCFMAN TRUE
UNRESTRICTED True
THRESH  14
SYMMETRY FALSE
SYM_IGNORE TRUE
max_scf_cycles 200

XC_GRID 000099000590
BASIS DEF2-QZVPPD


$end










