$molecule
0 1
C  0.0000000000  2.4123330000  -1.6208449200
Al  0.0000000000  1.3075660000  0.0094430800
C  0.0000000000  2.0585250000  1.8332340800
C  -1.6923080000  0.0000000000  -0.2229959200
Al  0.0000000000  -1.3075660000  0.0094430800
C  0.0000000000  -2.4123330000  -1.6208449200
C  1.6923080000  0.0000000000  -0.2229959200
C  0.0000000000  -2.0585250000  1.8332340800
H  0.8764990000  -2.6884800000  2.0070860800
H  0.0000000000  -1.2880880000  2.6073090800
H  -0.8764990000  -2.6884800000  2.0070860800
H  0.8771700000  -3.0628520000  -1.6644739200
H  -0.8771700000  -3.0628520000  -1.6644739200
H  0.0000000000  -1.8074630000  -2.5304279200
H  0.8764990000  2.6884800000  2.0070860800
H  -0.8764990000  2.6884800000  2.0070860800
H  0.0000000000  1.2880880000  2.6073090800
H  0.8771700000  3.0628520000  -1.6644739200
H  0.0000000000  1.8074630000  -2.5304279200
H  -0.8771700000  3.0628520000  -1.6644739200
H  1.9849930000  0.0000000000  -1.2729799200
H  2.1979030000  -0.8478250000  0.2560190800
H  2.1979030000  0.8478250000  0.2560190800
H  -1.9849930000  0.0000000000  -1.2729799200
H  -2.1979030000  0.8478250000  0.2560190800
H  -2.1979030000  -0.8478250000  0.2560190800
$end


$rem
N_FROZEN_CORE FC
MEM_TOTAL 30000
MEM_STATIC 8000
AUX_BASIS_CORR rimp2-def2-QZVPPD
SCF_CONVERGENCE 7
SCF_ALGORITHM  GDM
method DSD-PBEPBE-D3
GEN_SCFMAN TRUE
UNRESTRICTED True
THRESH  14
SYMMETRY FALSE
SYM_IGNORE TRUE
max_scf_cycles 200

XC_GRID 000099000590
BASIS DEF2-QZVPPD


$end










