$molecule
0 1
C  1.7585300000  0.0000000000  2.1922020000
Al  0.0000000000  0.0000000000  1.3137230000
C  -1.7585300000  0.0000000000  2.1922020000
H  0.0000000000  1.1481260000  0.0000000000
Al  0.0000000000  0.0000000000  -1.3137230000
C  1.7585300000  0.0000000000  -2.1922020000
H  0.0000000000  -1.1481260000  0.0000000000
C  -1.7585300000  0.0000000000  -2.1922020000
H  -1.8804780000  -0.8778010000  -2.8305230000
H  -2.5796630000  0.0000000000  -1.4738380000
H  -1.8804780000  0.8778010000  -2.8305230000
H  1.8804780000  -0.8778010000  -2.8305230000
H  1.8804780000  0.8778010000  -2.8305230000
H  2.5796630000  0.0000000000  -1.4738380000
H  -1.8804780000  -0.8778010000  2.8305230000
H  -1.8804780000  0.8778010000  2.8305230000
H  -2.5796630000  0.0000000000  1.4738380000
H  1.8804780000  -0.8778010000  2.8305230000
H  2.5796630000  0.0000000000  1.4738380000
H  1.8804780000  0.8778010000  2.8305230000
$end


$rem
N_FROZEN_CORE FC
MEM_TOTAL 15000
MEM_STATIC 6000
AUX_BASIS_CORR rimp2-def2-QZVPPD
SCF_CONVERGENCE 7
SCF_ALGORITHM  GDM
method DSD-PBEPBE-D3
GEN_SCFMAN TRUE
UNRESTRICTED True
THRESH  14
SYMMETRY FALSE
SYM_IGNORE TRUE
max_scf_cycles 200

XC_GRID 000099000590
BASIS DEF2-QZVPPD


$end










