$molecule
0 1
C  0.0000000000  1.7300080000  -0.2426081000
Al  0.0000000000  0.0000000000  0.6973889000
C  0.0000000000  -1.7300080000  -0.2426081000
H  0.0000000000  0.0000000000  2.2853579000
H  0.0000000000  1.6339620000  -1.3284431000
H  0.8734430000  2.3237640000  0.0398389000
H  -0.8734430000  2.3237640000  0.0398389000
H  -0.8734430000  -2.3237640000  0.0398389000
H  0.8734430000  -2.3237640000  0.0398389000
H  0.0000000000  -1.6339620000  -1.3284431000
$end


$rem
N_FROZEN_CORE FC
MEM_TOTAL 3750
MEM_STATIC 1500
AUX_BASIS_CORR rimp2-def2-QZVPPD
SCF_CONVERGENCE 7
SCF_ALGORITHM  GDM
method DSD-PBEPBE-D3
GEN_SCFMAN TRUE
UNRESTRICTED True
THRESH  14
SYMMETRY FALSE
SYM_IGNORE TRUE
max_scf_cycles 200

XC_GRID 000099000590
BASIS DEF2-QZVPPD


$end










