$molecule
-1 1
F  0.0000000000  0.0000000000  -1.9968088969
C  0.0000000000  0.0000000000  0.0527475062
H  -0.5310425988  0.9197927621  -0.0738528588
H  -0.5310425988  -0.9197927621  -0.0738528588
H  1.0620851976  0.0000000000  -0.0738528588
Cl  0.0000000000  0.0000000000  2.1656199672
$end


$rem
N_FROZEN_CORE FC
MEM_TOTAL 3750
MEM_STATIC 1500
AUX_BASIS_CORR rimp2-def2-QZVPPD
SCF_CONVERGENCE 7
SCF_ALGORITHM  GDM
method DSD-PBEPBE-D3
GEN_SCFMAN TRUE
UNRESTRICTED True
THRESH  14
SYMMETRY FALSE
SYM_IGNORE TRUE
max_scf_cycles 200

XC_GRID 000099000590
BASIS DEF2-QZVPPD


$end










