$molecule
-1 1
F  0.0000000000  0.0000000000  -1.8899362597
C  0.0000000000  0.0000000000  -0.4815627621
H  -0.5123599960  0.8874335449  -0.1278024794
H  -0.5123599960  -0.8874335449  -0.1278024794
H  1.0247199921  0.0000000000  -0.1278024794
Cl  0.0000000000  0.0000000000  2.7549064599
$end


$rem
N_FROZEN_CORE FC
MEM_TOTAL 3750
MEM_STATIC 1500
AUX_BASIS_CORR rimp2-def2-QZVPPD
SCF_CONVERGENCE 7
SCF_ALGORITHM  GDM
method DSD-PBEPBE-D3
GEN_SCFMAN TRUE
UNRESTRICTED True
THRESH  14
SYMMETRY FALSE
SYM_IGNORE TRUE
max_scf_cycles 200

XC_GRID 000099000590
BASIS DEF2-QZVPPD


$end










