$molecule
-1 1
Cl  0.0000000000  0.0000000000  2.1229643121
C  0.0000000000  0.0000000000  0.2724658688
H  -0.5131616996  -0.8888221361  -0.0553144569
H  -0.5131616996  0.8888221361  -0.0553144569
H  1.0263233991  0.0000000000  -0.0553144569
F  0.0000000000  0.0000000000  -2.2294868103
$end


$rem
N_FROZEN_CORE FC
MEM_TOTAL 3750
MEM_STATIC 1500
AUX_BASIS_CORR rimp2-def2-QZVPPD
SCF_CONVERGENCE 7
SCF_ALGORITHM  GDM
method DSD-PBEPBE-D3
GEN_SCFMAN TRUE
UNRESTRICTED True
THRESH  14
SYMMETRY FALSE
SYM_IGNORE TRUE
max_scf_cycles 200

XC_GRID 000099000590
BASIS DEF2-QZVPPD


$end










