$molecule
0 2
C  -1.8006208416  0.1680582274  0.2173733136
H  -2.1516452780  -0.7643859526  -0.2044201129
H  -2.0003429189  1.0607728380  -0.3603453644
H  -1.8751395818  0.2660623831  1.2922825927
H  -0.4200259746  0.0393650193  0.0508550449
Cl  1.0147608762  -0.0947147899  -0.1225061207
$end


$rem
N_FROZEN_CORE FC
MEM_TOTAL 3750
MEM_STATIC 1500
AUX_BASIS_CORR rimp2-def2-QZVPPD
SCF_CONVERGENCE 7
SCF_ALGORITHM  GDM
method DSD-PBEPBE-D3
GEN_SCFMAN TRUE
UNRESTRICTED True
THRESH  14
SYMMETRY FALSE
SYM_IGNORE TRUE
max_scf_cycles 200

XC_GRID 000099000590
BASIS DEF2-QZVPPD


$end










