$molecule
-1 1
Cl  0.0000250000  0.0195260055  2.3225007364
C  0.0005130003  0.0004860001  -0.0000890002
H  0.7612796822  -0.7507331796  0.0063770092
H  -1.0304509817  -0.2827240580  0.0021469991
H  0.2707281389  1.0349278212  -0.0086970281
Cl  -0.0002970002  -0.0197840323  -2.3224584022
$end


$rem
N_FROZEN_CORE FC
MEM_TOTAL 3750
MEM_STATIC 1500
AUX_BASIS_CORR rimp2-def2-QZVPPD
SCF_CONVERGENCE 7
SCF_ALGORITHM  GDM
method DSD-PBEPBE-D3
GEN_SCFMAN TRUE
UNRESTRICTED True
THRESH  14
SYMMETRY FALSE
SYM_IGNORE TRUE
max_scf_cycles 200

XC_GRID 000099000590
BASIS DEF2-QZVPPD


$end










