$molecule
0 1
Si  0.0000000000  0.0000000000  -1.3762385508
C  0.0000000000  -1.3535774834  -0.0760130876
C  0.0000000000  1.3535774834  -0.0760130876
C  0.0000000000  -0.7431682654  1.1239673401
C  0.0000000000  0.7431682654  1.1239673401
H  -1.2043372203  0.0000000000  -2.2493635296
H  1.2043372203  0.0000000000  -2.2493635296
H  0.0000000000  -2.4310368683  -0.1811311251
H  0.0000000000  2.4310368683  -0.1811311251
H  0.0000000000  -1.2776504563  2.0706596776
H  0.0000000000  1.2776504563  2.0706596776
$end


$rem
N_FROZEN_CORE FC
MEM_TOTAL 3750
MEM_STATIC 1500
AUX_BASIS_CORR rimp2-def2-QZVPPD
SCF_CONVERGENCE 7
SCF_ALGORITHM  GDM
method DSD-PBEPBE-D3
GEN_SCFMAN TRUE
UNRESTRICTED True
THRESH  14
SYMMETRY FALSE
SYM_IGNORE TRUE
max_scf_cycles 200

XC_GRID 000099000590
BASIS DEF2-QZVPPD


$end










