$molecule
0 1
Pd  0.0000000000  0.0000000000  0.0000000000
Si  0.0000000000  0.0000000000  2.0980000000
$end


$rem
N_FROZEN_CORE FC
MEM_TOTAL 3750
MEM_STATIC 1500
AUX_BASIS_CORR rimp2-def2-QZVPPD
SCF_CONVERGENCE 7
SCF_ALGORITHM  GDM
method DSD-PBEPBE-D3
GEN_SCFMAN TRUE
UNRESTRICTED True
THRESH  14
SYMMETRY FALSE
SYM_IGNORE TRUE
max_scf_cycles 200

XC_GRID 000250000974
BASIS GEN
PURECART 11111
ECP GEN


$end







$basis
H 0
cc-pVQZ
****
B 0
aug-cc-pwCVQZ
****
C 0
aug-cc-pwCVQZ
****
N 0
aug-cc-pwCVQZ
****
O 0
aug-cc-pwCVQZ
****
F 0
aug-cc-pwCVQZ
****
Al 0
aug-cc-pwCVQZ
****
Si 0
aug-cc-pwCVQZ
****
P 0
aug-cc-pwCVQZ
****
S 0
aug-cc-pwCVQZ
****
Cl 0
aug-cc-pwCVQZ
****
Pd     0
S   1   1.00
      2.5834000              1.0000000
S   1   1.00
      1.6177000              1.0000000
S   13   1.00
   7844.8900000              0.0000150
   1169.5300000              0.0001070
    259.6440000              0.0004120
     39.2211000              0.0098640
     24.4934000             -0.0719220
     15.2969000              0.2128330
      6.0389600             -0.4542200
      3.7622800             -0.2996210
      1.8071000              0.5046120
      0.9743050              0.6622770
      0.4972030              0.2406810
      0.1620200              0.0126460
      0.0714600             -0.0004720
S   13   1.00
   7844.8900000             -0.0000100
   1169.5300000             -0.0000840
    259.6440000             -0.0002300
     39.2211000             -0.0090740
     24.4934000              0.0563390
     15.2969000             -0.1563130
      6.0389600              0.3943670
      3.7622800              0.1184910
      1.8071000             -0.3911140
      0.9743050             -1.3967980
      0.4972030              1.1011240
      0.1620200              1.3128540
      0.0714600             -0.6576300
S   13   1.00
   7844.8900000             -0.0000050
   1169.5300000             -0.0000330
    259.6440000             -0.0001350
     39.2211000             -0.0027160
     24.4934000              0.0205170
     15.2969000             -0.0636890
      6.0389600              0.1551180
      3.7622800              0.0800520
      1.8071000             -0.1865700
      0.9743050             -0.3054990
      0.4972030             -0.1813090
      0.1620200              0.3039740
      0.0714600              0.6177640
S   13   1.00
   7844.8900000              0.0000020
   1169.5300000              0.0000150
    259.6440000              0.0000580
     39.2211000              0.0012900
     24.4934000             -0.0092020
     15.2969000              0.0283700
      6.0389600             -0.0690030
      3.7622800             -0.0717590
      1.8071000              0.2549580
      0.9743050              0.1451930
      0.4972030             -0.4647570
      0.1620200              0.2244370
      0.0714600              0.1291750
S   13   1.00
   7844.8900000             -0.0000150
   1169.5300000             -0.0001090
    259.6440000             -0.0004080
     39.2211000             -0.0090780
     24.4934000              0.0648030
     15.2969000             -0.1999130
      6.0389600              0.4866890
      3.7622800              0.5061480
      1.8071000             -1.8058520
      0.9743050             -1.0058890
      0.4972030              3.2670160
      0.1620200             -1.5764190
      0.0714600             -0.9382990
S   1   1.00
      0.0313100              1.0000000
S   1   1.00
      0.0137000              1.0000000
P   1   1.00
      3.2460000              1.0000000
P   1   1.00
      1.8118000              1.0000000
P   10   1.00
     98.8243000              0.0003180
     27.9859000             -0.0046710
     17.4873000              0.0292410
      6.7863800             -0.1992820
      1.9878800              0.4101390
      1.0657300              0.4471440
      0.5838290              0.2362210
      0.3146360              0.0624690
      0.1357370              0.0060750
      0.0602770             -0.0000850
P   10   1.00
     98.8243000             -0.0001660
     27.9859000              0.0022660
     17.4873000             -0.0161180
      6.7863800              0.1219530
      1.9878800             -0.3403790
      1.0657300             -0.3281810
      0.5838290             -0.0330520
      0.3146360              0.5487950
      0.1357370              0.5332220
      0.0602770              0.0994340
P   10   1.00
     98.8243000              0.0000090
     27.9859000             -0.0013240
     17.4873000              0.0372040
      6.7863800             -0.3882460
      1.9878800              2.6384130
      1.0657300             -2.7457290
      0.5838290             -0.6384020
      0.3146360              1.9045610
      0.1357370             -0.1954810
      0.0602770             -0.6798620
P   10   1.00
     98.8243000              0.0004190
     27.9859000             -0.0058840
     17.4873000              0.0317000
      6.7863800             -0.2240400
      1.9878800              0.8656960
      1.0657300              0.3452800
      0.5838290             -0.9931720
      0.3146360             -0.6775520
      0.1357370              0.7731840
      0.0602770              0.3765310
P   10   1.00
     98.8243000             -0.0000510
     27.9859000              0.0006780
     17.4873000             -0.0066790
      6.7863800              0.0544150
      1.9878800             -0.1382020
      1.0657300             -0.1410000
      0.5838290             -0.1010710
      0.3146360              0.1265930
      0.1357370              0.4211200
      0.0602770              0.4722370
P   1   1.00
      0.0265400              1.0000000
P   1   1.00
      0.0117000              1.0000000
D   1   1.00
      4.4081000              1.0000000
D   1   1.00
      1.7026000              1.0000000
D   9   1.00
     78.3406000              0.0003190
     21.0235000              0.0031690
      7.5187300             -0.0301280
      3.6893300              0.0820580
      2.0193400              0.2405330
      1.0717600              0.3254140
      0.5516620              0.3009480
      0.2739330              0.2050090
      0.1301110              0.0921770
D   9   1.00
     78.3406000             -0.0004130
     21.0235000             -0.0116470
      7.5187300              0.1255530
      3.6893300             -0.5684920
      2.0193400             -0.7972550
      1.0717600              1.5702270
      0.5516620              0.0164980
      0.2739330             -1.1631360
      0.1301110              0.3227120
D   9   1.00
     78.3406000             -0.0005710
     21.0235000             -0.0049650
      7.5187300              0.0523140
      3.6893300             -0.1757260
      2.0193400             -0.6558300
      1.0717600              0.0297190
      0.5516620              0.8321610
      0.2739330              0.1960240
      0.1301110             -0.5651970
D   9   1.00
     78.3406000             -0.0003900
     21.0235000             -0.0033600
      7.5187300              0.0334560
      3.6893300             -0.0998880
      2.0193400             -0.3344540
      1.0717600             -0.3267360
      0.5516620              0.0663700
      0.2739330              0.4205140
      0.1301110              0.4170070
D   1   1.00
      0.0574730              1.0000000
D   1   1.00
      0.0254000              1.0000000
F   1   1.00
      6.1583000              1.0000000
F   1   1.00
      2.6720000              1.0000000
F   1   1.00
      1.1593000              1.0000000
F   1   1.00
      0.4226000              1.0000000
F   1   1.00
      0.1540000              1.0000000
G   1   1.00
      3.5354000              1.0000000
G   1   1.00
      1.8090000              1.0000000
G   1   1.00
      0.7801000              1.0000000
G   1   1.00
      0.3364000              1.0000000
H   1   1.00
      3.3608000              1.0000000
H   1   1.00
      1.5307000              1.0000000
H   1   1.00
      0.6971000              1.0000000
****
$end

$ecp
PD     0
PD-ECP     4     28
g potential
  1
2      1.0000000              0.0000000
s-g potential
  2
2     12.79882500           240.26278900
2      5.80052800            34.72996100
p-g potential
  4
2     11.87469700            56.74692900
2     11.47433500           113.44441700
2      5.51599900             9.34563900
2      5.24804300            18.34544700
d-g potential
  4
2      8.50221200            28.59555400
2      7.98332400            43.45392100
2      3.10762800             1.85228600
2      2.47673400             1.40676500
f-g potential
  2
2      9.67957100           -10.98725500
2      9.69134900           -14.62619000
****
$end
