$molecule
0 1
C -0.8500 -0.0344 -0.2000
S 0.9000 -0.5125 -0.1219
H 1.4219 0.5781 0.4250
H -0.9406 0.8688 -0.8219
H -1.4219 -0.8688 -0.6469
H -1.2031 0.1656 0.8219
$end


$rem
N_FROZEN_CORE FC
MEM_TOTAL 3750
MEM_STATIC 1500
AUX_BASIS_CORR rimp2-def2-QZVPPD
SCF_CONVERGENCE 7
SCF_ALGORITHM  GDM
method DSD-PBEPBE-D3
GEN_SCFMAN TRUE
UNRESTRICTED True
THRESH  14
SYMMETRY FALSE
SYM_IGNORE TRUE
max_scf_cycles 200

XC_GRID 000099000590
BASIS AUG-PC-3


$end





$multipole_field
X 0.0001
Y 0.0
Z 0.0
$end




