$molecule
0 1
C  -5.8057821400  -0.4654869300  -0.0058791900
H  -5.4903540200  -1.4946213100  -0.2225656200
H  -5.3110763600  0.2013812300  -0.7258873300
H  -6.8908994300  -0.4013952600  -0.1676456500
C  -5.4544791100  -0.0721045400  1.4370312800
H  -5.7877636700  0.9584982700  1.6362739400
H  -6.0015249500  -0.7253229600  2.1369394300
C  -3.9878140800  -0.1388270600  1.7546867100
C  -3.2018907600  0.9053665100  2.0479767800
H  -3.7068268600  1.8772614700  2.0513139700
C  -1.7423346000  0.9056508600  2.3674488000
H  -1.1824312800  1.5128031400  1.6379823400
H  -1.5587678100  1.3554675300  3.3563199900
H  -1.3249290400  -0.1080900400  2.3648455400
Cl  -3.3261195500  -1.7771985200  1.7126187900
$end


$rem
N_FROZEN_CORE FC
MEM_TOTAL 7500
MEM_STATIC 3000
AUX_BASIS_CORR rimp2-def2-QZVPPD
SCF_CONVERGENCE 7
SCF_ALGORITHM  GDM
method DSD-PBEPBE-D3
GEN_SCFMAN TRUE
UNRESTRICTED True
THRESH  14
SYMMETRY FALSE
SYM_IGNORE TRUE
max_scf_cycles 200

XC_GRID 000099000590
BASIS DEF2-QZVPPD


$end










