$molecule
0 1
C  -1.0212097700  -0.0036932900  -0.0000010300
Cl  -0.2564454600  -1.5904022800  0.0000002800
Cl  -2.7776343500  -0.1338022400  0.0000002800
O  -0.4283329800  1.0220008500  0.0000004700
$end


$rem
N_FROZEN_CORE FC
MEM_TOTAL 3750
MEM_STATIC 1500
AUX_BASIS_CORR rimp2-def2-QZVPPD
SCF_CONVERGENCE 7
SCF_ALGORITHM  GDM
method DSD-PBEPBE-D3
GEN_SCFMAN TRUE
UNRESTRICTED True
THRESH  14
SYMMETRY FALSE
SYM_IGNORE TRUE
max_scf_cycles 200

XC_GRID 000099000590
BASIS DEF2-QZVPPD


$end










