$molecule
0 1
Cl  0.0000000000  1.4939925467  0.8346444611
C  0.0000000000  0.0000000000  -0.1555982213
Cl  0.0000000000  -1.4939925467  0.8346444611
H  0.8986495032  0.0000000000  -0.7568453504
H  -0.8986495032  0.0000000000  -0.7568453504
$end


$rem
N_FROZEN_CORE FC
MEM_TOTAL 3750
MEM_STATIC 1500
AUX_BASIS_CORR rimp2-def2-QZVPPD
SCF_CONVERGENCE 7
SCF_ALGORITHM  GDM
method DSD-PBEPBE-D3
GEN_SCFMAN TRUE
UNRESTRICTED True
THRESH  14
SYMMETRY FALSE
SYM_IGNORE TRUE
max_scf_cycles 200

XC_GRID 000099000590
BASIS DEF2-QZVPPD


$end










