$molecule
0 1
Si  0.0000000000  0.0000000000  1.1778338380
Si  0.0000000000  0.0000000000  -1.1778338380
H  1.2077043640  -0.6972684397  1.6958659461
H  0.0000000000  1.3945368793  1.6958659461
H  -1.2077043640  -0.6972684397  1.6958659461
H  1.2077043640  0.6972684397  -1.6958659461
H  0.0000000000  -1.3945368793  -1.6958659461
H  -1.2077043640  0.6972684397  -1.6958659461
$end


$rem
N_FROZEN_CORE FC
MEM_TOTAL 3750
MEM_STATIC 1500
AUX_BASIS_CORR rimp2-def2-QZVPPD
SCF_CONVERGENCE 7
SCF_ALGORITHM  GDM
method DSD-PBEPBE-D3
GEN_SCFMAN TRUE
UNRESTRICTED True
THRESH  14
SYMMETRY FALSE
SYM_IGNORE TRUE
max_scf_cycles 200

XC_GRID 000099000590
BASIS DEF2-QZVPPD


$end










