$molecule
0 1
C  -0.4230939431  -0.5559237996  0.0000000000
C  0.3202194146  0.7495851615  0.0000000000
O  -0.1480121425  1.8321511520  0.0000000000
Cl  2.1447503349  0.5394307690  0.0000000000
H  -1.0666309382  -0.5761347468  0.8804323195
H  0.2393982126  -1.4129737894  0.0000000000
H  -1.0666309382  -0.5761347468  -0.8804323195
$end


$rem
N_FROZEN_CORE FC
MEM_TOTAL 3750
MEM_STATIC 1500
AUX_BASIS_CORR rimp2-def2-QZVPPD
SCF_CONVERGENCE 7
SCF_ALGORITHM  GDM
method DSD-PBEPBE-D3
GEN_SCFMAN TRUE
UNRESTRICTED True
THRESH  14
SYMMETRY FALSE
SYM_IGNORE TRUE
max_scf_cycles 200

XC_GRID 000099000590
BASIS DEF2-QZVPPD


$end










