$molecule
0 1
Cl  -3.1753754771  0.2592862028  0.0000000000
Cl  -1.2337284722  -0.3041147976  0.0000000000
Cl  2.0289022496  -0.9719197323  0.0000000000
Cl  2.3802016997  1.0167483271  0.0000000000
$end


$rem
N_FROZEN_CORE FC
MEM_TOTAL 3750
MEM_STATIC 1500
AUX_BASIS_CORR rimp2-def2-QZVPPD
SCF_CONVERGENCE 7
SCF_ALGORITHM  GDM
method DSD-PBEPBE-D3
GEN_SCFMAN TRUE
UNRESTRICTED True
THRESH  14
SYMMETRY FALSE
SYM_IGNORE TRUE
max_scf_cycles 200

XC_GRID 000099000590
BASIS DEF2-QZVPPD


$end










