$molecule
0 1
P  1.8484380084  0.2517858487  0.0000000000
F  3.2683265528  -0.5364800921  0.0000000000
H  1.2137759499  -0.5025695125  -1.0253077094
H  1.2137759499  -0.5025695125  1.0253077094
Cl  -1.3392583861  0.9751154591  0.0000000000
Cl  -2.1436300346  -0.8776997829  0.0000000000
$end


$rem
N_FROZEN_CORE FC
MEM_TOTAL 3750
MEM_STATIC 1500
AUX_BASIS_CORR rimp2-def2-QZVPPD
SCF_CONVERGENCE 7
SCF_ALGORITHM  GDM
method DSD-PBEPBE-D3
GEN_SCFMAN TRUE
UNRESTRICTED True
THRESH  14
SYMMETRY FALSE
SYM_IGNORE TRUE
max_scf_cycles 200

XC_GRID 000099000590
BASIS DEF2-QZVPPD


$end










