$molecule
0 1
Cl  -0.9633092245  -0.0180992173  0.0000000000
Cl  -2.9930089476  0.0878636634  0.0000000000
P  2.2300895238  -0.4414642718  0.0000000000
F  3.3511290784  0.7238365769  0.0000000000
H  2.7820026595  -1.2489829188  -1.0309424492
H  2.7820026595  -1.2489829188  1.0309424492
$end


$rem
N_FROZEN_CORE FC
MEM_TOTAL 3750
MEM_STATIC 1500
AUX_BASIS_CORR rimp2-def2-QZVPPD
SCF_CONVERGENCE 7
SCF_ALGORITHM  GDM
method DSD-PBEPBE-D3
GEN_SCFMAN TRUE
UNRESTRICTED True
THRESH  14
SYMMETRY FALSE
SYM_IGNORE TRUE
max_scf_cycles 200

XC_GRID 000099000590
BASIS DEF2-QZVPPD


$end










