$molecule
0 1
F  -3.0843437782  0.3407906399  0.0000000000
Cl  -1.5941838345  -0.3582182864  0.0000000000
Cl  1.5941838345  0.3582182864  0.0000000000
F  3.0843437782  -0.3407906399  0.0000000000
$end


$rem
N_FROZEN_CORE FC
MEM_TOTAL 3750
MEM_STATIC 1500
AUX_BASIS_CORR rimp2-def2-QZVPPD
SCF_CONVERGENCE 7
SCF_ALGORITHM  GDM
method DSD-PBEPBE-D3
GEN_SCFMAN TRUE
UNRESTRICTED True
THRESH  14
SYMMETRY FALSE
SYM_IGNORE TRUE
max_scf_cycles 200

XC_GRID 000099000590
BASIS DEF2-QZVPPD


$end










