$molecule
0 1
Cl  1.3435864077  0.0850604981  0.0000000000
F  2.9698450557  -0.1896206547  0.0000000000
Cl  -1.7742517983  0.5727642629  0.0000000000
F  -2.1771534574  -1.0211851651  0.0000000000
$end


$rem
N_FROZEN_CORE FC
MEM_TOTAL 3750
MEM_STATIC 1500
AUX_BASIS_CORR rimp2-def2-QZVPPD
SCF_CONVERGENCE 7
SCF_ALGORITHM  GDM
method DSD-PBEPBE-D3
GEN_SCFMAN TRUE
UNRESTRICTED True
THRESH  14
SYMMETRY FALSE
SYM_IGNORE TRUE
max_scf_cycles 200

XC_GRID 000099000590
BASIS DEF2-QZVPPD


$end










