$molecule
0 1
As  0.9775244166  -0.0963750457  -0.0017744534
F  2.7061554084  0.2336636875  0.0392525532
H  0.9803577943  -0.8518123204  -1.3257216503
H  1.0328544808  -1.3702408147  0.8346743269
$end


$rem
N_FROZEN_CORE FC
MEM_TOTAL 3750
MEM_STATIC 1500
AUX_BASIS_CORR rimp2-def2-QZVPPD
SCF_CONVERGENCE 7
SCF_ALGORITHM  GDM
method DSD-PBEPBE-D3
GEN_SCFMAN TRUE
UNRESTRICTED True
THRESH  14
SYMMETRY FALSE
SYM_IGNORE TRUE
max_scf_cycles 200

XC_GRID 000099000590
BASIS DEF2-QZVPPD


$end










