$molecule
0 1
Br  1.4424635214  0.0134717310  0.0000000000
F  3.2118870386  -0.1567956956  0.0000000000
Br  -1.7008895586  0.3513352488  0.0000000000
F  -2.1383993028  -1.3585927037  0.0000000000
$end


$rem
N_FROZEN_CORE FC
MEM_TOTAL 3750
MEM_STATIC 1500
AUX_BASIS_CORR rimp2-def2-QZVPPD
SCF_CONVERGENCE 7
SCF_ALGORITHM  GDM
method DSD-PBEPBE-D3
GEN_SCFMAN TRUE
UNRESTRICTED True
THRESH  14
SYMMETRY FALSE
SYM_IGNORE TRUE
max_scf_cycles 200

XC_GRID 000099000590
BASIS DEF2-QZVPPD


$end










