$molecule
0 1
F  -2.6225452105  -0.0226666323  0.1585233145
Se  -0.8222280092  0.0604429077  -0.0751086346
H  -0.6157214805  0.4523951495  1.3249494335
P  1.7189464997  -0.3587993825  0.0358072115
F  3.1011888283  0.4623039921  0.0324725186
H  1.9322084106  -1.1829930113  -1.0909409043
H  2.0312137850  -1.3227624961  1.0208925931
$end


$rem
N_FROZEN_CORE FC
MEM_TOTAL 3750
MEM_STATIC 1500
AUX_BASIS_CORR rimp2-def2-QZVPPD
SCF_CONVERGENCE 7
SCF_ALGORITHM  GDM
method DSD-PBEPBE-D3
GEN_SCFMAN TRUE
UNRESTRICTED True
THRESH  14
SYMMETRY FALSE
SYM_IGNORE TRUE
max_scf_cycles 200

XC_GRID 000099000590
BASIS DEF2-QZVPPD


$end










