$molecule
0 1
As  0.9871856704  0.0314851842  0.0000000000
F  2.7537182171  -0.0623508990  0.0000000000
H  0.8825438130  1.0725225325  1.1093651894
H  0.8825438130  1.0725225325  -1.1093651894
$end


$rem
N_FROZEN_CORE FC
MEM_TOTAL 3750
MEM_STATIC 1500
AUX_BASIS_CORR rimp2-def2-QZVPPD
SCF_CONVERGENCE 7
SCF_ALGORITHM  GDM
method DSD-PBEPBE-D3
GEN_SCFMAN TRUE
UNRESTRICTED True
THRESH  14
SYMMETRY FALSE
SYM_IGNORE TRUE
max_scf_cycles 200

XC_GRID 000099000590
BASIS DEF2-QZVPPD


$end










