$molecule
0 1
He  0.0000000000  0.0000000000  0.0000000000
He  0.0000000000  0.0000000000  1.1483140900
He  0.9944691735  0.0000000000  0.5741570450
$end


$rem
N_FROZEN_CORE FC
MEM_TOTAL 3750
MEM_STATIC 1500
AUX_BASIS_CORR rimp2-def2-QZVPPD
SCF_CONVERGENCE 7
method DSD-PBEPBE-D3
GEN_SCFMAN TRUE
UNRESTRICTED True
THRESH  14
SYMMETRY FALSE
SYM_IGNORE TRUE
max_scf_cycles 200
scf_algorithm gdm

XC_GRID 000500000974
NL_GRID 000075000302
BASIS GEN
PURECART 11111


$end







$basis
He     0
S   1   1.00
      3.5660000              1.0000000
S   1   1.00
      1.2400000              1.0000000
S   8   1.00
   1145.0000000              0.0003590
    171.7000000              0.0027710
     39.0700000              0.0142510
     11.0400000              0.0555660
      3.5660000              0.1620910
      1.2400000              0.3321970
      0.4473000              0.4196150
      0.1640000              0.1861280
S   1   1.00
      0.4473000              1.0000000
S   1   1.00
      0.1640000              1.0000000
S   1   1.00
      0.0466400              1.0000000
S   1   1.00
      0.0133                 1.0000
P   1   1.00
     10.1530000              1.0000000
P   1   1.00
      3.6270000              1.0000000
P   1   1.00
      1.2960000              1.0000000
P   1   1.00
      0.4630000              1.0000000
P   1   1.00
      0.1400000              1.0000000
P   1   1.00
      0.0423                 1.0000
D   1   1.00
      7.6660000              1.0000000
D   1   1.00
      2.6470000              1.0000000
D   1   1.00
      0.9140000              1.0000000
D   1   1.00
      0.2892000              1.0000000
D   1   1.00
      0.0915                 1.0000
F   1   1.00
      5.4110000              1.0000000
F   1   1.00
      1.7070000              1.0000000
F   1   1.00
      0.5345000              1.0000000
F   1   1.00
      0.1670                 1.0000
G   1   1.00
      3.4300000              1.0000000
G   1   1.00
      0.7899000              1.0000000
G   1   1.00
      0.1820                 1.0000
****
$end


