$molecule
0 1
Sb  -0.0434442776  -1.1692917150  0.0000000000
H  0.7145630972  -2.0484560297  1.2113740205
H  0.7145630972  -2.0484560297  -1.2113740205
H  -1.3764798325  -2.1897773733  0.0000000000
O  0.3581089012  2.6389807209  0.0000000000
H  0.1107863210  1.7103041496  0.0000000000
H  -0.4780973066  3.1066962772  0.0000000000
$end


$rem
N_FROZEN_CORE FC
MEM_TOTAL 3750
MEM_STATIC 1500
AUX_BASIS_CORR rimp2-def2-QZVPPD
SCF_CONVERGENCE 7
SCF_ALGORITHM  GDM
method DSD-PBEPBE-D3
GEN_SCFMAN TRUE
UNRESTRICTED True
THRESH  14
SYMMETRY FALSE
SYM_IGNORE TRUE
max_scf_cycles 200

XC_GRID 000099000590
BASIS DEF2-QZVPPD


$end










