$molecule
0 1
Bi  0.0000000000  0.0000000000  -0.9999305102
H  -0.7181811230  -1.2439261941  -2.0211798481
H  -0.7181811230  1.2439261941  -2.0211798481
H  1.4363622460  0.0000000000  -2.0211798481
Cl  0.0000000000  0.0000000000  2.8955877602
H  0.0000000000  0.0000000000  4.1683596621
$end


$rem
N_FROZEN_CORE FC
MEM_TOTAL 3750
MEM_STATIC 1500
AUX_BASIS_CORR rimp2-def2-QZVPPD
SCF_CONVERGENCE 7
SCF_ALGORITHM  GDM
method DSD-PBEPBE-D3
GEN_SCFMAN TRUE
UNRESTRICTED True
THRESH  14
SYMMETRY FALSE
SYM_IGNORE TRUE
max_scf_cycles 200

XC_GRID 000099000590
BASIS DEF2-QZVPPD


$end










