$molecule
0 2 
Te  -1.8855241000  -0.3639256300  0.0000000000
C  0.2150537100  0.0250108800  0.0000000000
H  0.6702012200  -0.3855559700  0.8970663900
H  0.6702012200  -0.3855559700  -0.8970663900
H  0.3300679500  1.1100266900  0.0000000000
$end


$rem
N_FROZEN_CORE FC
MEM_TOTAL 3750
MEM_STATIC 1500
AUX_BASIS_CORR rimp2-def2-QZVPPD
SCF_CONVERGENCE 7
SCF_ALGORITHM  GDM
method DSD-PBEPBE-D3
GEN_SCFMAN TRUE
UNRESTRICTED True
THRESH  14
SYMMETRY FALSE
SYM_IGNORE TRUE
max_scf_cycles 200

XC_GRID 000099000590
BASIS DEF2-QZVPPD


$end










