$molecule
0 1
Pb  -0.0027914680  -2.1514756235  0.0000000000
H  -0.0557238732  -0.4289852815  0.0000000000
H  -0.7960743791  -2.7501707283  1.4068565601
H  -0.7960743791  -2.7501707283  -1.4068565601
H  1.6391968440  -2.6724398985  0.0000000000
Te  0.0110670310  2.8132017532  0.0000000000
H  1.1546563365  3.9809245351  0.0000000000
H  -1.1542561120  3.9591159717  0.0000000000
$end


$rem
N_FROZEN_CORE FC
MEM_TOTAL 3750
MEM_STATIC 1500
AUX_BASIS_CORR rimp2-def2-QZVPPD
SCF_CONVERGENCE 7
SCF_ALGORITHM  GDM
method DSD-PBEPBE-D3
GEN_SCFMAN TRUE
UNRESTRICTED True
THRESH  14
SYMMETRY FALSE
SYM_IGNORE TRUE
max_scf_cycles 200

XC_GRID 000099000590
BASIS DEF2-QZVPPD


$end










