$molecule
0 1
Sb  0.0000000000  0.0000000000  0.6812383621
H  0.0000000000  0.0000000000  -2.1066044416
Cl  0.0000000000  0.0000000000  -3.3868969231
H  -0.7002766730  -1.2129147769  1.6039947510
H  -0.7002766730  1.2129147769  1.6039947510
H  1.4005533459  0.0000000000  1.6039947510
$end


$rem
N_FROZEN_CORE FC
MEM_TOTAL 3750
MEM_STATIC 1500
AUX_BASIS_CORR rimp2-def2-QZVPPD
SCF_CONVERGENCE 7
SCF_ALGORITHM  GDM
method DSD-PBEPBE-D3
GEN_SCFMAN TRUE
UNRESTRICTED True
THRESH  14
SYMMETRY FALSE
SYM_IGNORE TRUE
max_scf_cycles 200

XC_GRID 000099000590
BASIS DEF2-QZVPPD


$end










