$molecule
0 1
Pb  1.4548033075  1.1089254606  0.0000000000
H  1.4788966234  2.1159394929  1.4003848463
H  2.8776791421  0.1338658901  0.0000000000
H  0.0530930535  0.1174095602  0.0000000000
H  1.4788966234  2.1159394929  -1.4003848463
O  -2.1266326016  -1.6384242634  0.0000000000
H  -3.0430538404  -1.3580081617  0.0000000000
H  -2.1736823078  -2.5956474716  0.0000000000
$end


$rem
N_FROZEN_CORE FC
MEM_TOTAL 3750
MEM_STATIC 1500
AUX_BASIS_CORR rimp2-def2-QZVPPD
SCF_CONVERGENCE 7
SCF_ALGORITHM  GDM
method DSD-PBEPBE-D3
GEN_SCFMAN TRUE
UNRESTRICTED True
THRESH  14
SYMMETRY FALSE
SYM_IGNORE TRUE
max_scf_cycles 200

XC_GRID 000099000590
BASIS DEF2-QZVPPD


$end










