$molecule
0 1 
Te  -0.1041636800  -1.3416203800  -1.4275909800
Te  0.1041636800  1.3416203800  -1.4275909800
C  -1.3714605300  1.7650457100  0.1580595600
C  1.3714605300  -1.7650457100  0.1580595600
H  2.3422853500  -1.3462077600  -0.1039760600
H  1.0417591700  -1.3497527200  1.1096231400
H  1.4722671400  -2.8476709100  0.2638843300
H  -2.3422853500  1.3462077600  -0.1039760600
H  -1.0417591700  1.3497527200  1.1096231400
H  -1.4722671400  2.8476709100  0.2638843300
$end


$rem
N_FROZEN_CORE FC
MEM_TOTAL 3750
MEM_STATIC 1500
AUX_BASIS_CORR rimp2-def2-QZVPPD
SCF_CONVERGENCE 7
SCF_ALGORITHM  GDM
method DSD-PBEPBE-D3
GEN_SCFMAN TRUE
UNRESTRICTED True
THRESH  14
SYMMETRY FALSE
SYM_IGNORE TRUE
max_scf_cycles 200

XC_GRID 000099000590
BASIS DEF2-QZVPPD


$end










