$molecule
0 2 
As  0.0000000000  0.0000000000  -1.3379613700
C  0.0000000000  1.4592872200  -0.0214133400
C  0.0000000000  -1.4592872200  -0.0214133400
H  0.0000000000  2.4200200600  -0.5358815700
H  0.8867689100  1.3941924800  0.6131378000
H  -0.8867689100  1.3941924800  0.6131378000
H  0.0000000000  -2.4200200600  -0.5358815700
H  0.8867689100  -1.3941924800  0.6131378000
H  -0.8867689100  -1.3941924800  0.6131378000
$end


$rem
N_FROZEN_CORE FC
MEM_TOTAL 3750
MEM_STATIC 1500
AUX_BASIS_CORR rimp2-def2-QZVPPD
SCF_CONVERGENCE 7
SCF_ALGORITHM  GDM
method DSD-PBEPBE-D3
GEN_SCFMAN TRUE
UNRESTRICTED True
THRESH  14
SYMMETRY FALSE
SYM_IGNORE TRUE
max_scf_cycles 200

XC_GRID 000099000590
BASIS DEF2-QZVPPD


$end










