$molecule
0 1
Te  -1.7692427349  -1.2434514712  0.0000000000
H  -0.5003775861  -0.2122699665  0.0000000000
H  -2.8014316901  0.0222469401  0.0000000000
H  2.8909295638  0.0054461708  0.0000000000
I  2.1801224474  1.4280283268  0.0000000000
$end


$rem
N_FROZEN_CORE FC
MEM_TOTAL 3750
MEM_STATIC 1500
AUX_BASIS_CORR rimp2-def2-QZVPPD
SCF_CONVERGENCE 7
SCF_ALGORITHM  GDM
method DSD-PBEPBE-D3
GEN_SCFMAN TRUE
UNRESTRICTED True
THRESH  14
SYMMETRY FALSE
SYM_IGNORE TRUE
max_scf_cycles 200

XC_GRID 000099000590
BASIS DEF2-QZVPPD


$end










