$molecule
0 1
Bi  2.2286350156  0.3489186433  0.0000000000
Bi  -2.2286350156  -0.3489186433  0.0000000000
H  3.2347888906  -0.3948843059  1.2430699076
H  1.1880549002  -1.0764038047  0.0000000000
H  3.2347888906  -0.3948843059  -1.2430699076
H  -3.2347888906  0.3948843059  -1.2430699076
H  -1.1880549002  1.0764038047  0.0000000000
H  -3.2347888906  0.3948843059  1.2430699076
$end


$rem
N_FROZEN_CORE FC
MEM_TOTAL 3750
MEM_STATIC 1500
AUX_BASIS_CORR rimp2-def2-QZVPPD
SCF_CONVERGENCE 7
SCF_ALGORITHM  GDM
method DSD-PBEPBE-D3
GEN_SCFMAN TRUE
UNRESTRICTED True
THRESH  14
SYMMETRY FALSE
SYM_IGNORE TRUE
max_scf_cycles 200

XC_GRID 000099000590
BASIS DEF2-QZVPPD


$end










