$molecule
0 2 
Sb  0.0000000000  0.0000000000  -1.4879871800
C  0.0000000000  1.5724992400  -0.0058647300
C  0.0000000000  -1.5724992400  -0.0058647300
H  0.0000000000  2.5463929300  -0.4945600500
H  0.8880475800  1.4850136200  0.6222091800
H  -0.8880475800  1.4850136200  0.6222091800
H  0.0000000000  -2.5463929300  -0.4945600500
H  0.8880475800  -1.4850136200  0.6222091800
H  -0.8880475800  -1.4850136200  0.6222091800
$end


$rem
N_FROZEN_CORE FC
MEM_TOTAL 3750
MEM_STATIC 1500
AUX_BASIS_CORR rimp2-def2-QZVPPD
SCF_CONVERGENCE 7
SCF_ALGORITHM  GDM
method DSD-PBEPBE-D3
GEN_SCFMAN TRUE
UNRESTRICTED True
THRESH  14
SYMMETRY FALSE
SYM_IGNORE TRUE
max_scf_cycles 200

XC_GRID 000099000590
BASIS DEF2-QZVPPD


$end










