$molecule
0 1
Pb  0.0000000000  0.0000000000  -1.3844672863
H  0.0000000000  -1.4025175377  -0.3834829628
H  0.0000000000  1.4025175377  -0.3834829628
H  1.4066649497  0.0000000000  -2.3780146230
H  -1.4066649497  0.0000000000  -2.3780146230
H  0.0000000000  0.0000000000  4.1611136123
Br  0.0000000000  0.0000000000  2.7463488458
$end


$rem
N_FROZEN_CORE FC
MEM_TOTAL 3750
MEM_STATIC 1500
AUX_BASIS_CORR rimp2-def2-QZVPPD
SCF_CONVERGENCE 7
SCF_ALGORITHM  GDM
method DSD-PBEPBE-D3
GEN_SCFMAN TRUE
UNRESTRICTED True
THRESH  14
SYMMETRY FALSE
SYM_IGNORE TRUE
max_scf_cycles 200

XC_GRID 000099000590
BASIS DEF2-QZVPPD


$end










