$molecule
0 2 
Pb  0.0000000000  0.0000000000  -0.8959877400
C  1.0459972200  1.8117203300  -0.0344445900
C  1.0459972200  -1.8117203300  -0.0344445900
C  -2.0919944400  0.0000000000  -0.0344445900
H  0.9949345500  1.7232772000  1.0524452100
H  2.0847797900  1.8244739700  -0.3596690200
H  0.5376509100  2.7177092400  -0.3596690200
H  -2.6224307000  0.8932352800  -0.3596690200
H  -2.6224307000  -0.8932352800  -0.3596690200
H  -1.9898691100  0.0000000000  1.0524452100
H  0.5376509100  -2.7177092400  -0.3596690200
H  2.0847797900  -1.8244739700  -0.3596690200
H  0.9949345500  -1.7232772000  1.0524452100
$end


$rem
N_FROZEN_CORE FC
MEM_TOTAL 3750
MEM_STATIC 1500
AUX_BASIS_CORR rimp2-def2-QZVPPD
SCF_CONVERGENCE 7
SCF_ALGORITHM  GDM
method DSD-PBEPBE-D3
GEN_SCFMAN TRUE
UNRESTRICTED True
THRESH  14
SYMMETRY FALSE
SYM_IGNORE TRUE
max_scf_cycles 200

XC_GRID 000099000590
BASIS DEF2-QZVPPD


$end










