$molecule
0 1
Bi  0.8122084533  1.5808565316  0.0000000000
H  0.2461237925  2.6973239041  1.2429269607
H  0.2461237925  2.6973239041  -1.2429269607
H  -0.7677981555  0.7954404450  0.0000000000
H  0.1282907553  -3.5542425057  0.0000000000
S  0.3214763191  -2.2350829695  0.0000000000
H  -0.9864249572  -1.9816193096  0.0000000000
$end


$rem
N_FROZEN_CORE FC
MEM_TOTAL 3750
MEM_STATIC 1500
AUX_BASIS_CORR rimp2-def2-QZVPPD
SCF_CONVERGENCE 7
SCF_ALGORITHM  GDM
method DSD-PBEPBE-D3
GEN_SCFMAN TRUE
UNRESTRICTED True
THRESH  14
SYMMETRY FALSE
SYM_IGNORE TRUE
max_scf_cycles 200

XC_GRID 000099000590
BASIS DEF2-QZVPPD


$end










