$molecule
0 1
Sb  0.0000000000  0.0000000000  0.7147090416
H  0.0000000000  0.0000000000  -2.1060038955
Br  0.0000000000  0.0000000000  -3.5288594622
H  -0.6998270544  -1.2121360147  1.6399849930
H  -0.6998270544  1.2121360147  1.6399849930
H  1.3996541088  0.0000000000  1.6399849930
$end


$rem
N_FROZEN_CORE FC
MEM_TOTAL 3750
MEM_STATIC 1500
AUX_BASIS_CORR rimp2-def2-QZVPPD
SCF_CONVERGENCE 7
SCF_ALGORITHM  GDM
method DSD-PBEPBE-D3
GEN_SCFMAN TRUE
UNRESTRICTED True
THRESH  14
SYMMETRY FALSE
SYM_IGNORE TRUE
max_scf_cycles 200

XC_GRID 000099000590
BASIS DEF2-QZVPPD


$end










