$molecule
0 1
Bi  0.0000000000  0.0000000000  -1.0319135840
H  -0.7187219444  -1.2448629243  -2.0502071496
H  -0.7187219444  1.2448629243  -2.0502071496
H  1.4374438889  0.0000000000  -2.0502071496
Br  0.0000000000  0.0000000000  2.8836608438
H  0.0000000000  0.0000000000  4.2994229064
$end


$rem
N_FROZEN_CORE FC
MEM_TOTAL 3750
MEM_STATIC 1500
AUX_BASIS_CORR rimp2-def2-QZVPPD
SCF_CONVERGENCE 7
SCF_ALGORITHM  GDM
method DSD-PBEPBE-D3
GEN_SCFMAN TRUE
UNRESTRICTED True
THRESH  14
SYMMETRY FALSE
SYM_IGNORE TRUE
max_scf_cycles 200

XC_GRID 000099000590
BASIS DEF2-QZVPPD


$end










