$molecule
0 1
Pb  0.0000000000  0.0000000000  -2.6353650644
H  0.8121918121  -1.4067574840  -3.2083634802
H  0.8121918121  1.4067574840  -3.2083634802
H  -1.6243836242  0.0000000000  -3.2083634802
H  0.0000000000  0.0000000000  -0.9110577124
Bi  0.0000000000  0.0000000000  2.5261119447
H  1.4361894681  0.0000000000  3.5489696956
H  -0.7180947341  1.2437765640  3.5489696956
H  -0.7180947341  -1.2437765640  3.5489696956
$end


$rem
N_FROZEN_CORE FC
MEM_TOTAL 3750
MEM_STATIC 1500
AUX_BASIS_CORR rimp2-def2-QZVPPD
SCF_CONVERGENCE 7
SCF_ALGORITHM  GDM
method DSD-PBEPBE-D3
GEN_SCFMAN TRUE
UNRESTRICTED True
THRESH  14
SYMMETRY FALSE
SYM_IGNORE TRUE
max_scf_cycles 200

XC_GRID 000099000590
BASIS DEF2-QZVPPD


$end










