$molecule
0 2 
Sn  0.0000000000  0.0000000000  -0.8187808800
C  1.0093554500  1.7482549200  -0.0389532600
C  1.0093554500  -1.7482549200  -0.0389532600
C  -2.0187109000  0.0000000000  -0.0389532600
H  0.9851811300  1.7063837800  1.0529344500
H  2.0473485100  1.7700556200  -0.3705271200
H  0.5092388800  2.6580836300  -0.3705271200
H  -2.5565873900  0.8880280100  -0.3705271200
H  -2.5565873900  -0.8880280100  -0.3705271200
H  -1.9703622600  0.0000000000  1.0529344500
H  0.5092388800  -2.6580836300  -0.3705271200
H  2.0473485100  -1.7700556200  -0.3705271200
H  0.9851811300  -1.7063837800  1.0529344500
$end


$rem
N_FROZEN_CORE FC
MEM_TOTAL 3750
MEM_STATIC 1500
AUX_BASIS_CORR rimp2-def2-QZVPPD
SCF_CONVERGENCE 7
SCF_ALGORITHM  GDM
method DSD-PBEPBE-D3
GEN_SCFMAN TRUE
UNRESTRICTED True
THRESH  14
SYMMETRY FALSE
SYM_IGNORE TRUE
max_scf_cycles 200

XC_GRID 000099000590
BASIS DEF2-QZVPPD


$end










