$molecule
0 1
Sb  0.0000000000  0.0000000000  -0.7096259510
H  -0.6952211127  -1.2041582898  0.2365471160
H  -0.6952211127  1.2041582898  0.2365471160
H  1.3904422255  0.0000000000  0.2365471160
$end


$rem
N_FROZEN_CORE FC
MEM_TOTAL 3750
MEM_STATIC 1500
AUX_BASIS_CORR rimp2-def2-QZVPPD
SCF_CONVERGENCE 7
SCF_ALGORITHM  GDM
method DSD-PBEPBE-D3
GEN_SCFMAN TRUE
UNRESTRICTED True
THRESH  14
SYMMETRY FALSE
SYM_IGNORE TRUE
max_scf_cycles 200

XC_GRID 000099000590
BASIS DEF2-QZVPPD


$end










