$molecule
0 1
Sb  0.7972442873  -1.5319905204  0.0000000000
H  -0.3459257468  -1.3194581272  1.2126780467
H  0.5284738443  -3.2056944092  0.0000000000
H  -0.3459257468  -1.3194581272  -1.2126780467
N  -0.0608435272  1.5780422012  0.0000000000
H  -0.6311871183  1.7718802232  0.8112262946
H  0.6893511257  2.2547985364  0.0000000000
H  -0.6311871183  1.7718802232  -0.8112262946
$end


$rem
N_FROZEN_CORE FC
MEM_TOTAL 3750
MEM_STATIC 1500
AUX_BASIS_CORR rimp2-def2-QZVPPD
SCF_CONVERGENCE 7
SCF_ALGORITHM  GDM
method DSD-PBEPBE-D3
GEN_SCFMAN TRUE
UNRESTRICTED True
THRESH  14
SYMMETRY FALSE
SYM_IGNORE TRUE
max_scf_cycles 200

XC_GRID 000099000590
BASIS DEF2-QZVPPD


$end










