$molecule
0 1 
Sn  0.0000000000  0.0000000000  -1.3855619400
Sn  0.0000000000  0.0000000000  1.3855619400
C  1.7683885400  -1.0209796000  -2.1724827100
C  0.0000000000  2.0419592000  -2.1724827100
C  -1.7683885400  -1.0209796000  -2.1724827100
C  1.7683885400  1.0209796000  2.1724827100
C  0.0000000000  -2.0419592000  2.1724827100
C  -1.7683885400  1.0209796000  2.1724827100
H  1.7682247100  -1.0208850100  -3.2643910000
H  2.6889269900  -0.5357479900  -1.8429180200
H  1.8084348700  -2.0608050800  -1.8429180200
H  0.0000000000  -2.0417700300  3.2643910000
H  -0.8804921200  -2.5965530800  1.8429180200
H  0.8804921200  -2.5965530800  1.8429180200
H  -1.7682247100  1.0208850100  3.2643910000
H  -1.8084348700  2.0608050800  1.8429180200
H  -2.6889269900  0.5357479900  1.8429180200
H  -1.8084348700  -2.0608050800  -1.8429180200
H  -2.6889269900  -0.5357479900  -1.8429180200
H  -1.7682247100  -1.0208850100  -3.2643910000
H  1.7682247100  1.0208850100  3.2643910000
H  2.6889269900  0.5357479900  1.8429180200
H  1.8084348700  2.0608050800  1.8429180200
H  -0.8804921200  2.5965530800  -1.8429180200
H  0.8804921200  2.5965530800  -1.8429180200
H  0.0000000000  2.0417700300  -3.2643910000
$end


$rem
N_FROZEN_CORE FC
MEM_TOTAL 30000
MEM_STATIC 8000
AUX_BASIS_CORR rimp2-def2-QZVPPD
SCF_CONVERGENCE 7
SCF_ALGORITHM  GDM
method DSD-PBEPBE-D3
GEN_SCFMAN TRUE
UNRESTRICTED True
THRESH  14
SYMMETRY FALSE
SYM_IGNORE TRUE
max_scf_cycles 200

XC_GRID 000099000590
BASIS DEF2-QZVPPD


$end










