$molecule
0 1
Te  -1.1062247063  -0.5922119789  0.0000000000
H  -1.2052503029  1.0363910034  0.0000000000
H  -2.7373795263  -0.7036258648  0.0000000000
H  2.6825555544  -0.4864377868  0.0000000000
Cl  2.3662989812  0.7458846271  0.0000000000
$end


$rem
N_FROZEN_CORE FC
MEM_TOTAL 3750
MEM_STATIC 1500
AUX_BASIS_CORR rimp2-def2-QZVPPD
SCF_CONVERGENCE 7
SCF_ALGORITHM  GDM
method DSD-PBEPBE-D3
GEN_SCFMAN TRUE
UNRESTRICTED True
THRESH  14
SYMMETRY FALSE
SYM_IGNORE TRUE
max_scf_cycles 200

XC_GRID 000099000590
BASIS DEF2-QZVPPD


$end










