$molecule
0 1
Pb  0.0000000000  0.0000000000  -2.2326996776
H  -0.9926360175  0.9926360175  -1.2337600292
H  0.9926360175  -0.9926360175  -1.2337600292
H  -0.9944895017  -0.9944895017  -3.2282889998
H  0.9944895017  0.9944895017  -3.2282889998
Pb  0.0000000000  0.0000000000  2.2326996776
H  -0.9944895017  0.9944895017  3.2282889998
H  0.9944895017  -0.9944895017  3.2282889998
H  -0.9926360175  -0.9926360175  1.2337600292
H  0.9926360175  0.9926360175  1.2337600292
$end


$rem
N_FROZEN_CORE FC
MEM_TOTAL 3750
MEM_STATIC 1500
AUX_BASIS_CORR rimp2-def2-QZVPPD
SCF_CONVERGENCE 7
SCF_ALGORITHM  GDM
method DSD-PBEPBE-D3
GEN_SCFMAN TRUE
UNRESTRICTED True
THRESH  14
SYMMETRY FALSE
SYM_IGNORE TRUE
max_scf_cycles 200

XC_GRID 000099000590
BASIS DEF2-QZVPPD


$end










