$molecule
0 1
Te  0.7913792641  2.9471614554  0.0000000000
H  0.5292354440  1.3341367377  0.0000000000
H  -0.8212750874  3.2066210963  0.0000000000
Te  -0.1127304599  -1.7295648106  0.0000000000
H  0.9612949754  -2.9601106448  0.0000000000
H  -1.3479041360  -2.7982438340  0.0000000000
$end


$rem
N_FROZEN_CORE FC
MEM_TOTAL 3750
MEM_STATIC 1500
AUX_BASIS_CORR rimp2-def2-QZVPPD
SCF_CONVERGENCE 7
SCF_ALGORITHM  GDM
method DSD-PBEPBE-D3
GEN_SCFMAN TRUE
UNRESTRICTED True
THRESH  14
SYMMETRY FALSE
SYM_IGNORE TRUE
max_scf_cycles 200

XC_GRID 000099000590
BASIS DEF2-QZVPPD


$end










