$molecule
0 1
Te  -1.1160553050  -1.0738519575  0.0000000000
H  -1.1127915049  0.5586383705  0.0000000000
H  -2.7518055946  -1.0737156394  0.0000000000
H  2.4157451648  1.4977105602  0.0000000000
Br  2.5649072397  0.0912186662  0.0000000000
$end


$rem
N_FROZEN_CORE FC
MEM_TOTAL 3750
MEM_STATIC 1500
AUX_BASIS_CORR rimp2-def2-QZVPPD
SCF_CONVERGENCE 7
SCF_ALGORITHM  GDM
method DSD-PBEPBE-D3
GEN_SCFMAN TRUE
UNRESTRICTED True
THRESH  14
SYMMETRY FALSE
SYM_IGNORE TRUE
max_scf_cycles 200

XC_GRID 000099000590
BASIS DEF2-QZVPPD


$end










