$molecule
0 1
Bi  0.0000000000  0.0000000000  0.7652040602
H  -0.7182277727  -1.2440069937  -0.2550813680
H  -0.7182277727  1.2440069937  -0.2550813680
H  1.4364555454  0.0000000000  -0.2550813680
$end


$rem
N_FROZEN_CORE FC
MEM_TOTAL 3750
MEM_STATIC 1500
AUX_BASIS_CORR rimp2-def2-QZVPPD
SCF_CONVERGENCE 7
SCF_ALGORITHM  GDM
method DSD-PBEPBE-D3
GEN_SCFMAN TRUE
UNRESTRICTED True
THRESH  14
SYMMETRY FALSE
SYM_IGNORE TRUE
max_scf_cycles 200

XC_GRID 000099000590
BASIS DEF2-QZVPPD


$end










