$molecule
0 1
Pb  0.0000000000  0.0000000000  -1.4130137018
H  0.0000000000  -1.3992183006  -0.4051354356
H  0.0000000000  1.3992183006  -0.4051354356
H  1.4086539982  0.0000000000  -2.4021760598
H  -1.4086539982  0.0000000000  -2.4021760598
H  0.0000000000  0.0000000000  4.3097250511
I  0.0000000000  0.0000000000  2.7179116416
$end


$rem
N_FROZEN_CORE FC
MEM_TOTAL 3750
MEM_STATIC 1500
AUX_BASIS_CORR rimp2-def2-QZVPPD
SCF_CONVERGENCE 7
SCF_ALGORITHM  GDM
method DSD-PBEPBE-D3
GEN_SCFMAN TRUE
UNRESTRICTED True
THRESH  14
SYMMETRY FALSE
SYM_IGNORE TRUE
max_scf_cycles 200

XC_GRID 000099000590
BASIS DEF2-QZVPPD


$end










