$molecule
0 1 
Pb  0.0000000000  0.0000000000  1.4374984200
Pb  0.0000000000  0.0000000000  -1.4374984200
C  1.7982121500  1.0381982700  2.2686972800
C  0.0000000000  -2.0763965400  2.2686972800
C  -1.7982121500  1.0381982700  2.2686972800
C  1.7982121500  -1.0381982700  -2.2686972800
C  0.0000000000  2.0763965400  -2.2686972800
C  -1.7982121500  -1.0381982700  -2.2686972800
H  1.7463480000  1.0082544900  3.3571899900
H  2.7002733500  0.5304162900  1.9296107500
H  1.8094906500  2.0732971700  1.9296107500
H  0.0000000000  2.0165089800  -3.3571899900
H  -0.8907826900  2.6037134600  -1.9296107500
H  0.8907826900  2.6037134600  -1.9296107500
H  -1.7463480000  -1.0082544900  -3.3571899900
H  -1.8094906500  -2.0732971700  -1.9296107500
H  -2.7002733500  -0.5304162900  -1.9296107500
H  -1.8094906500  2.0732971700  1.9296107500
H  -2.7002733500  0.5304162900  1.9296107500
H  -1.7463480000  1.0082544900  3.3571899900
H  1.7463480000  -1.0082544900  -3.3571899900
H  2.7002733500  -0.5304162900  -1.9296107500
H  1.8094906500  -2.0732971700  -1.9296107500
H  -0.8907826900  -2.6037134600  1.9296107500
H  0.8907826900  -2.6037134600  1.9296107500
H  0.0000000000  -2.0165089800  3.3571899900
$end


$rem
N_FROZEN_CORE FC
MEM_TOTAL 30000
MEM_STATIC 8000
AUX_BASIS_CORR rimp2-def2-QZVPPD
SCF_CONVERGENCE 7
SCF_ALGORITHM  GDM
method DSD-PBEPBE-D3
GEN_SCFMAN TRUE
UNRESTRICTED True
THRESH  14
SYMMETRY FALSE
SYM_IGNORE TRUE
max_scf_cycles 200

XC_GRID 000099000590
BASIS DEF2-QZVPPD


$end










