$molecule
0 1
Bi  0.0000000000  0.0000000000  -1.7883789314
H  -0.7159837136  -1.2401201693  -2.8244629592
H  -0.7159837136  1.2401201693  -2.8244629592
H  1.4319674272  0.0000000000  -2.8244629592
N  0.0000000000  0.0000000000  2.2802688479
H  -0.9356812003  0.0000000000  2.6606587201
H  0.4678406002  -0.8103236893  2.6606587201
H  0.4678406002  0.8103236893  2.6606587201
$end


$rem
N_FROZEN_CORE FC
MEM_TOTAL 3750
MEM_STATIC 1500
AUX_BASIS_CORR rimp2-def2-QZVPPD
SCF_CONVERGENCE 7
SCF_ALGORITHM  GDM
method DSD-PBEPBE-D3
GEN_SCFMAN TRUE
UNRESTRICTED True
THRESH  14
SYMMETRY FALSE
SYM_IGNORE TRUE
max_scf_cycles 200

XC_GRID 000099000590
BASIS DEF2-QZVPPD


$end










