$molecule
0 1
Te  0.8521860426  -1.6337060798  0.0000000000
H  0.8895200996  -3.2771034995  0.0000000000
H  -0.7766674772  -1.6746603051  0.0000000000
N  -0.1747538249  1.3708981812  0.0000000000
H  -0.7182738102  1.6273343595  -0.8122595712
H  -0.7182738102  1.6273343595  0.8122595712
H  0.6462627802  1.9599029843  0.0000000000
$end


$rem
N_FROZEN_CORE FC
MEM_TOTAL 3750
MEM_STATIC 1500
AUX_BASIS_CORR rimp2-def2-QZVPPD
SCF_CONVERGENCE 7
SCF_ALGORITHM  GDM
method DSD-PBEPBE-D3
GEN_SCFMAN TRUE
UNRESTRICTED True
THRESH  14
SYMMETRY FALSE
SYM_IGNORE TRUE
max_scf_cycles 200

XC_GRID 000099000590
BASIS DEF2-QZVPPD


$end










