$molecule
0 2 
Ge  0.0000000000  0.0000000000  0.3521459200
H  0.7328617600  1.2693538000  -0.1173819700
H  0.7328617600  -1.2693538000  -0.1173819700
H  -1.4657235200  0.0000000000  -0.1173819700
$end


$rem
N_FROZEN_CORE FC
MEM_TOTAL 3750
MEM_STATIC 1500
AUX_BASIS_CORR rimp2-def2-QZVPPD
SCF_CONVERGENCE 7
SCF_ALGORITHM  GDM
method DSD-PBEPBE-D3
GEN_SCFMAN TRUE
UNRESTRICTED True
THRESH  14
SYMMETRY FALSE
SYM_IGNORE TRUE
max_scf_cycles 200

XC_GRID 000099000590
BASIS DEF2-QZVPPD


$end










