$molecule
0 1
Sb  -0.0397077128  -1.3450954893  0.0000000000
H  0.6982889749  -2.2498867978  1.2079823479
H  0.6982889749  -2.2498867978  -1.2079823479
H  -1.3919378312  -2.3418803460  0.0000000000
H  0.8005547271  3.3584257558  0.0000000000
S  -0.5004602096  3.0712038058  0.0000000000
H  -0.2650269233  1.7571198694  0.0000000000
$end


$rem
N_FROZEN_CORE FC
MEM_TOTAL 3750
MEM_STATIC 1500
AUX_BASIS_CORR rimp2-def2-QZVPPD
SCF_CONVERGENCE 7
SCF_ALGORITHM  GDM
method DSD-PBEPBE-D3
GEN_SCFMAN TRUE
UNRESTRICTED True
THRESH  14
SYMMETRY FALSE
SYM_IGNORE TRUE
max_scf_cycles 200

XC_GRID 000099000590
BASIS DEF2-QZVPPD


$end










