$molecule
0 1
Bi  0.8817352281  -1.2135914580  -0.2884463984
H  0.6630493393  -2.9488100093  0.0066874636
H  0.1166101571  -0.8703690816  1.2633402738
H  -0.6947050929  -1.1674158448  -1.0758892422
O  0.0289783087  1.8947100189  0.0108130795
H  -0.6614194673  1.7453810887  0.6598369377
H  -0.3342484730  2.5600952861  -0.5763421141
$end


$rem
N_FROZEN_CORE FC
MEM_TOTAL 3750
MEM_STATIC 1500
AUX_BASIS_CORR rimp2-def2-QZVPPD
SCF_CONVERGENCE 7
SCF_ALGORITHM  GDM
method DSD-PBEPBE-D3
GEN_SCFMAN TRUE
UNRESTRICTED True
THRESH  14
SYMMETRY FALSE
SYM_IGNORE TRUE
max_scf_cycles 200

XC_GRID 000099000590
BASIS DEF2-QZVPPD


$end










