$molecule
0 1
Sb  -0.7220935713  1.8848109851  0.0000000000
H  -0.2208112271  2.9485337635  1.2038511735
H  -0.2208112271  2.9485337635  -1.2038511735
H  0.7801304171  1.1211295838  0.0000000000
Sb  0.7899755163  -2.0761319631  0.0000000000
H  -0.2843796762  -1.5940885168  1.2021268198
H  0.1623694445  -3.6386990992  0.0000000000
H  -0.2843796762  -1.5940885168  -1.2021268198
$end


$rem
N_FROZEN_CORE FC
MEM_TOTAL 3750
MEM_STATIC 1500
AUX_BASIS_CORR rimp2-def2-QZVPPD
SCF_CONVERGENCE 7
SCF_ALGORITHM  GDM
method DSD-PBEPBE-D3
GEN_SCFMAN TRUE
UNRESTRICTED True
THRESH  14
SYMMETRY FALSE
SYM_IGNORE TRUE
max_scf_cycles 200

XC_GRID 000099000590
BASIS DEF2-QZVPPD


$end










