$molecule
0 1 
Se  -1.1627976900  -0.0165054100  -0.5167533900
Se  1.1627976900  0.0165054100  -0.5167533900
H  -1.3441116600  1.0168304900  0.5167533900
H  1.3441116600  -1.0168304900  0.5167533900
$end


$rem
N_FROZEN_CORE FC
MEM_TOTAL 3750
MEM_STATIC 1500
AUX_BASIS_CORR rimp2-def2-QZVPPD
SCF_CONVERGENCE 7
SCF_ALGORITHM  GDM
method DSD-PBEPBE-D3
GEN_SCFMAN TRUE
UNRESTRICTED True
THRESH  14
SYMMETRY FALSE
SYM_IGNORE TRUE
max_scf_cycles 200

XC_GRID 000099000590
BASIS DEF2-QZVPPD


$end










