$molecule
0 1
Sb  0.0000000000  0.0000000000  0.7543314028
H  0.0000000000  0.0000000000  -2.1034613219
I  0.0000000000  0.0000000000  -3.7023409601
H  -0.6990939250  -1.2108661973  1.6836128303
H  -0.6990939250  1.2108661973  1.6836128303
H  1.3981878499  0.0000000000  1.6836128303
$end


$rem
N_FROZEN_CORE FC
MEM_TOTAL 3750
MEM_STATIC 1500
AUX_BASIS_CORR rimp2-def2-QZVPPD
SCF_CONVERGENCE 7
SCF_ALGORITHM  GDM
method DSD-PBEPBE-D3
GEN_SCFMAN TRUE
UNRESTRICTED True
THRESH  14
SYMMETRY FALSE
SYM_IGNORE TRUE
max_scf_cycles 200

XC_GRID 000099000590
BASIS DEF2-QZVPPD


$end










