$molecule
0 1
Si  0.0000000000  -2.0614138700  -0.8729222600
Si  0.0000000000  0.0000000000  -2.0297728200
Si  0.0000000000  2.0614138700  -0.8729222600
Si  0.0000000000  2.0406643600  1.4729671200
Si  0.0000000000  -2.0406643600  1.4729671200
H  1.1979959300  -2.8254845200  -1.3182201200
H  -1.1979959300  -2.8254845200  -1.3182201200
H  -1.1967684300  0.0000000000  -2.9151835700
H  1.1967684300  0.0000000000  -2.9151835700
H  1.1979959300  2.8254845200  -1.3182201200
H  -1.1979959300  2.8254845200  -1.3182201200
H  0.0000000000  3.4404145000  1.9722957000
H  -1.2060855300  1.3527808400  1.9974689700
H  1.2060855300  1.3527808400  1.9974689700
H  0.0000000000  -3.4404145000  1.9722957000
H  1.2060855300  -1.3527808400  1.9974689700
H  -1.2060855300  -1.3527808400  1.9974689700
$end


$rem
N_FROZEN_CORE FC
MEM_TOTAL 7500
MEM_STATIC 3000
AUX_BASIS_CORR rimp2-def2-QZVPPD
SCF_CONVERGENCE 7
SCF_ALGORITHM  GDM
method DSD-PBEPBE-D3
GEN_SCFMAN TRUE
UNRESTRICTED True
THRESH  14
SYMMETRY FALSE
SYM_IGNORE TRUE
max_scf_cycles 200

XC_GRID 000099000590
BASIS DEF2-QZVPPD


$end










