$molecule
0 1
Si  1.9187389700  -1.1077844600  0.3877960200
Si  1.9187389700  1.1077844600  -0.3877960200
Si  0.0000000000  2.2155689200  0.3877960200
Si  -1.9187389700  1.1077844600  -0.3877960200
Si  -1.9187389700  -1.1077844600  0.3877960200
Si  0.0000000000  -2.2155689200  -0.3877960200
H  1.8982677900  -1.0959654200  1.8759610500
H  3.1514590000  -1.8194957000  -0.0478433500
H  3.1514590000  1.8194957000  0.0478433500
H  1.8982677900  1.0959654200  -1.8759610500
H  0.0000000000  3.6389914000  -0.0478433500
H  0.0000000000  2.1919308400  1.8759610500
H  -3.1514590000  1.8194957000  0.0478433500
H  -1.8982677900  1.0959654200  -1.8759610500
H  -3.1514590000  -1.8194957000  -0.0478433500
H  -1.8982677900  -1.0959654200  1.8759610500
H  0.0000000000  -2.1919308400  -1.8759610500
H  0.0000000000  -3.6389914000  0.0478433500
$end


$rem
N_FROZEN_CORE FC
MEM_TOTAL 15000
MEM_STATIC 6000
AUX_BASIS_CORR rimp2-def2-QZVPPD
SCF_CONVERGENCE 7
SCF_ALGORITHM  GDM
method DSD-PBEPBE-D3
GEN_SCFMAN TRUE
UNRESTRICTED True
THRESH  14
SYMMETRY FALSE
SYM_IGNORE TRUE
max_scf_cycles 200

XC_GRID 000099000590
BASIS DEF2-QZVPPD


$end










