$molecule
0 1
Si  0.9511171700  -2.3424832300  0.0000000000
Si  2.8984898500  -1.0332587600  0.0000000000
Si  -0.9943370800  -1.0045312000  0.0000000000
Si  -0.5086480100  1.2919667700  0.0000000000
Si  -2.4706214700  2.5785436900  0.0000000000
H  0.9497503800  -3.2195732800  -1.2021786300
H  0.9497503800  -3.2195732800  1.2021786300
H  -1.8162088200  -1.3165723800  1.2008198700
H  -1.8162088200  -1.3165723800  -1.2008198700
H  0.3085214300  1.6177510700  -1.2005088700
H  0.3085214300  1.6177510700  1.2005088700
H  -2.1707434900  4.0338127500  0.0000000000
H  -3.2785022800  2.2609932200  -1.2054358500
H  -3.2785022800  2.2609932200  1.2054358500
H  4.1188563900  -1.8807504900  0.0000000000
H  2.9243826200  -0.1642484000  -1.2042815600
H  2.9243826200  -0.1642484000  1.2042815600
$end


$rem
N_FROZEN_CORE FC
MEM_TOTAL 7500
MEM_STATIC 3000
AUX_BASIS_CORR rimp2-def2-QZVPPD
SCF_CONVERGENCE 7
SCF_ALGORITHM  GDM
method DSD-PBEPBE-D3
GEN_SCFMAN TRUE
UNRESTRICTED True
THRESH  14
SYMMETRY FALSE
SYM_IGNORE TRUE
max_scf_cycles 200

XC_GRID 000099000590
BASIS DEF2-QZVPPD


$end










