$molecule
0 1
Si  0.6313988200  1.1151594600  -2.0853250900
Si  0.7036721100  3.0395058500  -0.7442682200
Si  0.7209841500  -0.8013741700  -0.7346881100
Si  -0.9862987200  -0.7603061400  0.8749589000
Si  -0.9781678600  -2.7074075200  2.1835926200
H  -0.6406928300  1.1017705100  -2.8574833100
H  1.7579915100  1.1302199900  -3.0582154800
H  2.0339888500  -0.8483054200  -0.0353727200
H  0.5996593400  -2.0365005200  -1.5564595000
H  -2.3008028100  -0.6163805200  0.1916750300
H  -0.7966887200  0.4330219600  1.7438264100
H  -2.0489645600  -2.6805222400  3.2135988100
H  -1.1852572900  -3.8950706900  1.3154538300
H  0.3335479200  -2.8463830000  2.8670987700
H  0.7272974100  4.2762181100  -1.5673746000
H  -0.4903684000  3.0797561000  0.1383294700
H  1.9187010800  3.0165982500  0.1106531900
$end


$rem
N_FROZEN_CORE FC
MEM_TOTAL 7500
MEM_STATIC 3000
AUX_BASIS_CORR rimp2-def2-QZVPPD
SCF_CONVERGENCE 7
SCF_ALGORITHM  GDM
method DSD-PBEPBE-D3
GEN_SCFMAN TRUE
UNRESTRICTED True
THRESH  14
SYMMETRY FALSE
SYM_IGNORE TRUE
max_scf_cycles 200

XC_GRID 000099000590
BASIS DEF2-QZVPPD


$end










