$molecule
0 1
Si  0.0000000000  1.9473548000  -0.8616731400
Si  0.0000000000  0.0000000000  0.4477874600
Si  0.0000000000  -1.9473548000  -0.8616731400
Si  0.0000000000  -3.8799728400  0.4699474800
H  1.2020710600  1.9401513800  -1.7391602800
H  -1.2020710600  1.9401513800  -1.7391602800
Si  0.0000000000  3.8799728400  0.4699474800
H  1.2005348100  0.0000000000  1.3278975000
H  -1.2005348100  0.0000000000  1.3278975000
H  1.2020710600  -1.9401513800  -1.7391602800
H  -1.2020710600  -1.9401513800  -1.7391602800
H  0.0000000000  -5.1141796200  -0.3577814100
H  1.2054427700  -3.8916076800  1.3380182000
H  -1.2054427700  -3.8916076800  1.3380182000
H  0.0000000000  5.1141796200  -0.3577814100
H  -1.2054427700  3.8916076800  1.3380182000
H  1.2054427700  3.8916076800  1.3380182000
$end


$rem
N_FROZEN_CORE FC
MEM_TOTAL 7500
MEM_STATIC 3000
AUX_BASIS_CORR rimp2-def2-QZVPPD
SCF_CONVERGENCE 7
SCF_ALGORITHM  GDM
method DSD-PBEPBE-D3
GEN_SCFMAN TRUE
UNRESTRICTED True
THRESH  14
SYMMETRY FALSE
SYM_IGNORE TRUE
max_scf_cycles 200

XC_GRID 000099000590
BASIS DEF2-QZVPPD


$end










