$molecule
0 1
Si  0.6713992700  0.9617187200  1.8052134800
Si  -0.6713992700  -0.9617187200  1.8052134800
Si  0.0000000000  -2.3139579500  0.0000000000
Si  0.6713992700  -0.9617187200  -1.8052134800
Si  -0.6713992700  0.9617187200  -1.8052134800
Si  0.0000000000  2.3139579500  0.0000000000
H  2.0857388700  0.5478261400  1.5948939000
H  0.5976121900  1.7111548300  3.0884979400
H  -0.5976121900  -1.7111548300  3.0884979400
H  -2.0857388700  -0.5478261400  1.5948939000
H  -1.1258142900  -3.1874150800  -0.4291738600
H  1.1258142900  -3.1874150800  0.4291738600
H  2.0857388700  -0.5478261400  -1.5948939000
H  0.5976121900  -1.7111548300  -3.0884979400
H  -2.0857388700  0.5478261400  -1.5948939000
H  -0.5976121900  1.7111548300  -3.0884979400
H  -1.1258142900  3.1874150800  0.4291738600
H  1.1258142900  3.1874150800  -0.4291738600
$end


$rem
N_FROZEN_CORE FC
MEM_TOTAL 15000
MEM_STATIC 6000
AUX_BASIS_CORR rimp2-def2-QZVPPD
SCF_CONVERGENCE 7
SCF_ALGORITHM  GDM
method DSD-PBEPBE-D3
GEN_SCFMAN TRUE
UNRESTRICTED True
THRESH  14
SYMMETRY FALSE
SYM_IGNORE TRUE
max_scf_cycles 200

XC_GRID 000099000590
BASIS DEF2-QZVPPD


$end










