$molecule
1 1
N  -0.0729786509  1.9492327165  -0.4759052374
C  0.8690744402  1.0832370394  0.4454020295
C  0.1208262305  -0.2922507689  0.4287347787
C  -1.3123975706  0.0747100746  0.2556935399
C  -1.4254428060  1.3485822614  -0.2993123140
C  2.2707614578  0.7560203577  -0.1342767276
C  2.2263103557  -0.7955645749  -0.2364090408
C  2.1329424471  -1.3733610176  1.2082516814
C  0.6412584184  -1.1102015703  1.6258518506
C  0.8002505829  -1.0561005797  -0.7996839112
C  -2.6273157937  1.9416393629  -0.6498700741
C  -3.7921189994  1.2000662275  -0.4173896572
C  -3.7041900753  -0.0846154761  0.1411041495
C  -2.4714663147  -0.6629969359  0.4822235443
C  0.9039645047  1.8307652403  1.7752037302
C  0.3869632395  -2.5384673411  -0.8847378342
C  0.5300537164  -0.4689856378  -2.2026536337
Cl  -5.1722752255  -0.9889427404  0.4253879137
H  -2.4298949263  -1.6569652336  0.9171985002
H  -4.7634999879  1.6187954381  -0.6619459911
H  -2.6859741942  2.9387445967  -1.0806249309
H  0.2254437738  1.8838764400  -1.4548913433
H  -0.0455777990  2.9354558521  -0.1993455903
H  0.5432285859  -0.5755572868  2.5732260251
H  0.0758203306  -2.0395414541  1.7260593194
H  2.8418464690  -0.8792247492  1.8816633441
H  2.3613570254  -2.4423246345  1.2166961057
H  3.0484750978  -1.2105801163  -0.8268519603
H  3.0572812499  1.1043984625  0.5424521498
H  2.4496112455  1.2272360653  -1.1073269033
H  1.3358378264  2.8309807173  1.6316327731
H  -0.0966235737  1.9234125338  2.2153878368
H  1.5498318394  1.2998863862  2.4780382020
H  -0.5462961387  -0.3260962317  -2.3644591429
H  1.0564295642  0.4699756245  -2.4164116630
H  0.8806360880  -1.1712680165  -2.9665353932
H  -0.6848918671  -2.6152647935  -1.1098700534
H  0.9329390584  -3.0190385317  -1.7048300015
H  0.5898003757  -3.1096677060  0.0231239293
$end


$rem
N_FROZEN_CORE FC
MEM_TOTAL 120000
MEM_STATIC 8000
AUX_BASIS_CORR rimp2-def2-QZVPPD
SCF_CONVERGENCE 7
SCF_ALGORITHM  GDM
method DSD-PBEPBE-D3
GEN_SCFMAN TRUE
UNRESTRICTED True
THRESH  14
SYMMETRY FALSE
SYM_IGNORE TRUE
max_scf_cycles 200

XC_GRID 000099000590
BASIS DEF2-QZVPPD


$end










