$molecule
0 1
C  0.6255793933  -2.2416261619  -0.0861207132
C  -0.1754818429  -3.2264425800  0.3378831333
H  -0.9597179908  -3.0380554089  1.0705028127
H  -0.0605802319  -4.2466717175  -0.0261543175
C  1.7116217091  -2.4481040989  -1.1079091007
H  2.6978783704  -2.2361980518  -0.6730819881
H  1.7029320388  -3.4736936314  -1.4941842735
H  1.5860874382  -1.7499796605  -1.9475624186
C  0.4725001635  -0.8393372148  0.4737667665
N  0.2622038788  0.1727102536  -0.5780915461
C  -1.0349689266  0.0565751817  -1.2763389194
C  -2.2132199726  0.3815933871  -0.3793663072
C  -3.1022340665  -0.6251184629  0.0184772378
C  -4.1784980547  -0.3324489914  0.8643200962
C  -4.3690101709  0.9743880001  1.3228098586
C  -3.4818043043  1.9853252643  0.9307042701
C  -2.4094687864  1.6922906822  0.0846209998
H  -2.9455562348  -1.6426767576  -0.3371916946
H  -4.8636934848  -1.1229367395  1.1655647826
H  -5.2042477042  1.2057930096  1.9813023367
H  -3.6305244245  3.0049869011  1.2819253604
H  -1.7167038859  2.4701214834  -0.2288675970
C  0.9857652145  1.3315489282  -0.7415136527
C  2.3629611589  1.4347730591  -0.1965858149
O  0.5519245001  2.3128118882  -1.3563008377
C  3.0924154499  2.5692884181  0.0498082040
C  4.3930018003  2.1612437269  0.4699161353
C  4.3706129965  0.7942655026  0.4364420436
H  2.7207595913  3.5776695829  -0.0741272490
H  5.2327414123  2.7812912846  0.7524439576
O  3.1628482335  0.3188858462  0.0373533145
Cl  5.5788907015  -0.3799592277  0.7912574611
H  -0.3951888034  -0.8066472074  1.1475725271
H  1.3551880073  -0.5695617024  1.0561809074
H  -1.0076011295  0.7313945384  -2.1363030093
H  -1.1174120434  -0.9774993237  -1.6331527660
$end


$rem
N_FROZEN_CORE FC
MEM_TOTAL 120000
MEM_STATIC 8000
AUX_BASIS_CORR rimp2-def2-QZVPPD
SCF_CONVERGENCE 7
SCF_ALGORITHM  GDM
method DSD-PBEPBE-D3
GEN_SCFMAN TRUE
UNRESTRICTED True
THRESH  14
SYMMETRY FALSE
SYM_IGNORE TRUE
max_scf_cycles 200

XC_GRID 000099000590
BASIS DEF2-QZVPPD


$end










