$molecule
0 1
C  0.9405181871  0.6339312091  -0.6598766258
C  0.2997997897  -0.6580172715  -0.0377238219
C  1.2477136639  -0.9757265574  1.1407439968
C  2.2982953117  0.2054110398  1.1467866671
C  3.5635820235  -0.1563048407  0.2591827836
C  1.9899658173  0.0935958392  -1.6401024018
O  1.6146568266  1.2474382848  0.4489272286
C  2.6634325623  0.6957700706  2.5405299883
C  -0.0033598375  1.6841848139  -1.2258594796
C  3.1942238037  -0.3238582793  -1.2014451261
N  0.3693264952  -0.9325752233  2.3468175933
N  -0.8031897982  -0.6385222176  2.0261339817
N  -0.9565985812  -0.4453975989  0.6753161443
C  -3.6695506206  -0.5627281190  -1.8581104677
C  -4.7945932079  -0.2931991837  -1.0753117642
C  -4.6320713127  -0.0765723849  0.2989473038
C  -3.3697939573  -0.1200082424  0.8881674355
C  -2.2387834328  -0.3952376813  0.0958984488
C  -2.3971701407  -0.6163787487  -1.2833896026
H  0.1979249280  -1.4595859988  -0.7751054160
H  1.7270942071  -1.9542286448  1.1084836344
Cl  4.3481751692  -1.6795836680  0.9209250362
Cl  4.8275072456  1.1933845231  0.3325179131
Cl  1.4743858716  -0.1347692075  -3.2959109131
H  3.2018607606  -0.0859833970  3.0844995033
H  1.7440603687  0.9284852008  3.0820900135
H  3.2852915330  1.5907262654  2.4725485476
H  -0.5916007068  1.2930589846  -2.0568336283
H  0.5798340219  2.5463099397  -1.5664867291
H  -0.6814959027  1.9970541262  -0.4267959707
Cl  4.4087853435  -0.9742854020  -2.2759347635
H  -3.7743552858  -0.7354999203  -2.9273793814
H  -5.7829074539  -0.2511300241  -1.5269389708
H  -5.4981119291  0.1354343905  0.9228166179
H  -1.5359925331  -0.8227425724  -1.9111094728
H  -3.2468592299  0.0475504956  1.9529816975
$end


$rem
N_FROZEN_CORE FC
MEM_TOTAL 120000
MEM_STATIC 8000
AUX_BASIS_CORR rimp2-def2-QZVPPD
SCF_CONVERGENCE 7
SCF_ALGORITHM  GDM
method DSD-PBEPBE-D3
GEN_SCFMAN TRUE
UNRESTRICTED True
THRESH  14
SYMMETRY FALSE
SYM_IGNORE TRUE
max_scf_cycles 200

XC_GRID 000099000590
BASIS DEF2-QZVPPD


$end










