$molecule
1 1
C  -0.1848776433  -0.3315343532  0.0582452957
C  0.5118018208  0.8663678208  -0.5259533086
C  0.4033026477  -1.6713074995  -0.2415498589
C  -0.0114045504  2.2368841821  0.0261873111
C  0.4770764743  0.8189842184  -2.0769372616
C  -0.4424135398  2.0838953342  1.4960286640
H  0.8516822038  2.9148428461  -0.0012325926
C  -1.1217513366  2.9032178907  -0.8018055451
C  -1.6141144119  1.1022028285  1.6192324298
H  0.3979868027  1.7159979210  2.1001116632
H  -0.7316561010  3.0606241021  1.8999874688
C  -1.2653746230  -0.2410781739  0.9540454472
H  -1.8603210193  0.9080290537  2.6691161139
H  -2.5079963095  1.5554482613  1.1729784354
H  -1.3033366935  -1.1148619360  1.6221049988
Si  -2.9832940798  -0.9686040787  -0.0504101648
C  1.8689898380  -1.7227030328  0.2824264906
C  2.7036531043  -0.6049435918  -0.3558349575
C  2.0287642167  0.7455267581  -0.0722571685
H  -0.1853649364  -2.4689278809  0.2179634105
H  0.4272291187  -1.8362466884  -1.3268130701
H  1.8610261245  -1.6125146580  1.3745493290
H  2.2845281483  -2.7097047108  0.0497946450
C  4.1500714708  -0.6057163997  0.1231114675
H  2.7182320114  -0.7691764348  -1.4409884965
H  2.0800302817  0.9550306769  1.0021475198
H  2.5595894043  1.5521350889  -0.5910588209
C  -4.2094000770  -0.9279892969  1.3849243653
C  -3.4746602495  0.1760646774  -1.4638457343
C  -2.6500921696  -2.7243426671  -0.6505164170
H  -5.1783098653  -1.3026717541  1.0237298069
H  -3.8870988499  -1.5723157866  2.2129556330
H  -4.3632671297  0.0868118825  1.7691154241
H  -4.3320698316  -0.2907822315  -1.9720276821
H  -3.8001470238  1.1628909089  -1.1164562094
H  -2.6808296635  0.3053318727  -2.2082261695
H  -3.5999949717  -3.1241290701  -1.0359899380
H  -1.9197954167  -2.7677081741  -1.4665257157
H  -2.3181291672  -3.3905730542  0.1554689050
H  1.0165786857  1.6932537884  -2.4575927595
H  0.9625847382  -0.0793200723  -2.4654719042
H  -0.5484334718  0.8587374505  -2.4561312583
H  -1.4256140831  3.8370264619  -0.3136256859
H  -0.7815139712  3.1492968578  -1.8123912821
H  -2.0055318309  2.2662369229  -0.8911449846
C  5.1503623376  -0.6730136221  -0.7628331514
C  4.3986306364  -0.5244172308  1.6103248762
H  6.1907825304  -0.6661173359  -0.4425250485
H  4.9584533085  -0.7390656725  -1.8333235887
H  3.9926515518  -1.4035457761  2.1315486238
H  5.4713901678  -0.4724795817  1.8227168168
H  3.9213953925  0.3609529584  2.0546536324
$end


$rem
N_FROZEN_CORE FC
MEM_TOTAL 240000
MEM_STATIC 8000
AUX_BASIS_CORR rimp2-def2-QZVPPD
SCF_CONVERGENCE 7
SCF_ALGORITHM  GDM
method DSD-PBEPBE-D3
GEN_SCFMAN TRUE
UNRESTRICTED True
THRESH  14
SYMMETRY FALSE
SYM_IGNORE TRUE
max_scf_cycles 200

XC_GRID 000099000590
BASIS DEF2-QZVPPD


$end










