$molecule
0 1
C  2.0697127105  1.4425945201  0.0342540914
C  0.8992574185  1.5324942778  -0.9983765189
C  0.1633972706  0.1829345261  -0.7746801763
C  1.0032587139  -0.4491899069  0.4016148688
C  2.3221769824  -0.9433303661  -0.2746962998
C  3.0638140158  0.3783749899  -0.5416540569
O  1.4297706029  0.7277501795  1.1039310137
C  0.3374891336  -1.4226948283  1.3425432654
C  2.6883588875  2.7334818537  0.5102981425
C  3.6626381805  -0.6660588186  0.3921534399
N  -1.1451248665  0.6726076624  -0.3503916201
N  -1.1707878454  2.0432406840  -0.2714680378
N  -0.0894594021  2.5745335104  -0.6090373625
H  1.2435625095  1.7327199720  -2.0155354509
H  0.0836329889  -0.4620590177  -1.6516399734
Cl  2.1211105575  -2.2879996408  -1.4158046900
Cl  3.8726509270  0.8377195922  -2.0497419335
H  0.0868672342  -2.3478341325  0.8154251912
H  -0.5815954588  -0.9819850608  1.7402460472
H  1.0210474004  -1.6496364814  2.1671791177
H  3.1770517335  3.2386198908  -0.3299029317
H  3.4300633061  2.5223550269  1.2874196353
H  1.9040421652  3.3854693216  0.9063586652
Cl  3.8701652514  -0.4263005240  2.1703718560
Cl  5.0665483037  -1.5810753251  -0.2272936602
C  -2.3215286507  -1.4395913592  -0.6279891146
C  -3.4894277751  -2.1984135073  -0.5202166435
C  -4.6688768864  -1.6275194556  -0.0361215743
C  -4.6669042870  -0.2784658884  0.3409367811
C  -3.5108175447  0.4936586710  0.2430841412
C  -2.3235899150  -0.0859305204  -0.2458886900
H  -1.4135528626  -1.9038273146  -0.9998266613
H  -3.4694874203  -3.2445214332  -0.8193372624
H  -5.5753153652  -2.2223076865  0.0479982458
H  -5.5769140971  0.1817460847  0.7209258090
H  -3.5132339168  1.5384405042  0.5348623465
$end


$rem
N_FROZEN_CORE FC
MEM_TOTAL 120000
MEM_STATIC 8000
AUX_BASIS_CORR rimp2-def2-QZVPPD
SCF_CONVERGENCE 7
SCF_ALGORITHM  GDM
method DSD-PBEPBE-D3
GEN_SCFMAN TRUE
UNRESTRICTED True
THRESH  14
SYMMETRY FALSE
SYM_IGNORE TRUE
max_scf_cycles 200

XC_GRID 000099000590
BASIS DEF2-QZVPPD


$end










