$molecule
1 1
C  -2.8077640456  -0.9577005853  -0.2695648527
C  -2.5077595755  -0.3785776707  -1.6650748447
C  -0.9978891590  -0.1135304584  -1.6189215346
C  -0.7184948828  0.3414953362  -0.1443870507
C  -2.0102473388  0.0028674708  0.6464190973
C  0.5727053753  -0.0045791349  0.4158286460
C  1.7498792037  0.0926783515  -0.4361942858
C  0.7427229907  -0.1943161749  1.8736064164
C  2.0605504363  1.6574878629  -0.3665284047
Si  3.3562367633  -0.9952160120  -0.0829624352
H  1.4726725921  -0.0904717819  -1.4810978868
C  0.8269421916  2.3943328354  -0.9054295632
H  2.2907599563  1.9553944641  0.6621361793
H  2.9496447882  1.8497336907  -0.9771233949
C  -0.4525303785  2.0307893135  -0.1428220812
H  0.9787358916  3.4791960536  -0.8172118879
H  0.7161980515  2.1727454067  -1.9721292638
C  -0.5144631156  2.6799913416  1.2389941914
H  -1.3407120116  2.3189805411  -0.7183429730
H  -1.3441581511  2.2976884365  1.8420617809
H  0.4158070279  2.5481475819  1.8017461139
H  -0.6728996754  3.7572218238  1.1070957087
C  4.3081247605  -0.8949569013  -1.7181132655
C  4.3678611380  -0.2550029836  1.3414272507
C  2.7829483861  -2.7633189366  0.2919530570
H  5.2420411383  -1.4691796857  -1.6457355620
H  3.7252585992  -1.3116366286  -2.5506815700
H  4.5776673223  0.1390848229  -1.9726290316
H  5.3487476062  -0.7493237299  1.3796642536
H  4.5521066806  0.8183559284  1.2001648547
H  3.8996222613  -0.3982137645  2.3239442879
H  3.6490592463  -3.4360906405  0.3575602611
H  2.2461288234  -2.8334096756  1.2474866164
H  2.1268039175  -3.1486188699  -0.5008824421
H  1.7597784978  0.0315055134  2.2048314190
H  0.0002368645  0.3472114159  2.4642459314
H  0.5659557099  -1.2697279017  2.0602323378
C  -4.2679569527  -1.0799244635  0.1084865099
C  -5.1480057907  0.1276655889  -0.1081408574
C  -4.7431925393  -2.2242110574  0.6159183862
H  -6.1472460785  -0.0368023375  0.3080639102
H  -4.7289894492  1.0302232241  0.3611129448
H  -5.2575367139  0.3474728155  -1.1797446018
H  -5.7880992065  -2.3263787025  0.9035173174
H  -4.1016611299  -3.0949288529  0.7487912004
H  -2.3456473931  -1.9540064858  -0.2061808880
H  -2.7875709582  -1.0555700387  -2.4787955925
H  -3.0560441388  0.5623659450  -1.8012178598
H  -0.4554681152  -1.0476488939  -1.8124273794
H  -0.6662417548  0.6189570358  -2.3591512645
H  -1.8253888055  -0.4324710450  1.6314775766
H  -2.5992288600  0.9142206131  0.7947245249
$end


$rem
N_FROZEN_CORE FC
MEM_TOTAL 240000
MEM_STATIC 8000
AUX_BASIS_CORR rimp2-def2-QZVPPD
SCF_CONVERGENCE 7
SCF_ALGORITHM  GDM
method DSD-PBEPBE-D3
GEN_SCFMAN TRUE
UNRESTRICTED True
THRESH  14
SYMMETRY FALSE
SYM_IGNORE TRUE
max_scf_cycles 200

XC_GRID 000099000590
BASIS DEF2-QZVPPD


$end










