$molecule
0 1
C  -0.0828779694  3.8284892768  -0.1048391605
C  0.1854110881  2.8622086504  -1.3138633255
C  0.2706126588  1.5049793846  -0.5645658167
C  0.0200471084  1.9766532099  0.9258804268
C  1.2091066900  2.7587255963  1.4390060458
C  1.1651908424  3.9197292981  0.7728721160
C  -0.9802337595  -2.4056406563  0.3579173604
C  -1.3304654581  -3.1455522405  -0.7773964542
C  -0.5028512993  -4.1770988555  -1.2377068075
C  0.6855637349  -4.4711979501  -0.5634521126
C  1.0423832256  -3.7337403486  0.5734872391
C  0.2147592922  -2.7062602890  1.0306949164
O  -0.9659422564  3.0326284082  0.7004356631
Cl  -0.8322064012  5.4015726927  -0.5521686503
C  -0.5965659253  0.7644937591  1.6174849339
N  -1.1653265344  0.0268237424  0.6136882358
C  -0.9321934042  0.5444052305  -0.7400506147
C  -1.8366082410  -1.2496505732  0.8367696217
O  -0.5664823560  0.4928798868  2.8100040856
C  1.5871549770  0.7530183090  -0.7652691762
H  -0.6626380657  2.9082220907  -2.0038799954
H  1.1061224190  3.1169576929  -1.8476186927
H  1.9669529337  2.3814975360  2.1162006240
H  1.8716021496  4.7417413506  0.7534353452
H  -2.2576403930  -2.9142479324  -1.3012493885
H  -0.7855089052  -4.7470679466  -2.1208285316
H  1.3305918851  -5.2725220781  -0.9186047840
H  1.9635866087  -3.9651594305  1.1051313002
H  0.4848721632  -2.1291731604  1.9136111781
H  -0.7018871050  -0.2900439490  -1.4146499065
H  -1.8238579640  1.0732772881  -1.1042521810
H  -2.8015346839  -1.2435348852  0.3114155580
H  -2.0231191225  -1.3210528545  1.9144335692
H  2.4411288202  1.3926700849  -0.5143893869
H  1.6845383172  0.4373079339  -1.8120469036
H  1.6183149299  -0.1463382717  -0.1356363308
$end


$rem
N_FROZEN_CORE FC
MEM_TOTAL 120000
MEM_STATIC 8000
AUX_BASIS_CORR rimp2-def2-QZVPPD
SCF_CONVERGENCE 7
SCF_ALGORITHM  GDM
method DSD-PBEPBE-D3
GEN_SCFMAN TRUE
UNRESTRICTED True
THRESH  14
SYMMETRY FALSE
SYM_IGNORE TRUE
max_scf_cycles 200

XC_GRID 000099000590
BASIS DEF2-QZVPPD


$end










