$molecule
1 1
C  1.2530098169  0.5963697236  0.6696656317
C  2.1389838896  -0.7132327611  0.8857109326
C  2.6943865088  -1.0367748501  -0.5315110626
C  2.0475488136  0.0572012921  -1.4090556739
C  0.4981335578  -0.1471677263  -1.5458252947
C  0.0457396712  0.1079071066  -0.0972391659
C  2.0933676501  1.2599993989  -0.4704722760
C  1.0939386105  1.5203017607  1.8792048465
C  -0.0198806795  0.9348735470  -2.5563721657
C  0.1123061639  -1.5515945951  -2.0537251792
C  -2.9856236506  -0.1528776914  2.1752701971
C  -1.6268531709  -0.3016200410  1.7847547549
C  -1.2577693221  -0.1041976241  0.3823611119
C  -2.3564890011  -0.0538639163  -0.5541753906
C  -3.6599377451  0.0244599317  -0.1428676420
C  -3.9803030855  0.0114408347  1.2426512809
H  2.9286841239  -0.4485462812  1.5983733920
H  1.5829757463  -1.5660796979  1.2969032551
H  2.4553185224  -2.0520177650  -0.8576293167
H  3.7834074229  -0.9275013555  -0.5536386811
H  2.5174260544  0.1765665249  -2.3885306536
H  3.0961611722  1.5009889572  -0.1009985428
H  1.6305163013  2.1700456582  -0.8618524096
H  0.8746439846  1.0157590972  2.8229827573
H  2.0374243780  2.0604737942  2.0187616006
H  0.3028967696  2.2583518416  1.6999910825
H  -0.1280513019  1.9231597423  -2.1003454457
H  0.7015203915  1.0108391763  -3.3775281495
H  -0.9808894967  0.6520674367  -2.9952862887
H  0.3822331480  -2.3323216093  -1.3349697450
H  -0.9596623190  -1.6318625414  -2.2550515757
H  0.6498920010  -1.7449105069  -2.9901488782
H  -3.2385791834  -0.2293476951  3.2306348380
N  -0.7541895402  -0.7342932820  2.7090459024
H  -2.1435412799  0.0245439849  -1.6074478608
Cl  -4.9545970302  0.1784637410  -1.3081806716
H  -5.0165014851  0.1050458200  1.5572225116
H  0.2036085096  -0.9485113715  2.4834787458
H  -1.0612549169  -0.9121380586  3.6558392288
$end


$rem
N_FROZEN_CORE FC
MEM_TOTAL 120000
MEM_STATIC 8000
AUX_BASIS_CORR rimp2-def2-QZVPPD
SCF_CONVERGENCE 7
SCF_ALGORITHM  GDM
method DSD-PBEPBE-D3
GEN_SCFMAN TRUE
UNRESTRICTED True
THRESH  14
SYMMETRY FALSE
SYM_IGNORE TRUE
max_scf_cycles 200

XC_GRID 000099000590
BASIS DEF2-QZVPPD


$end










