$molecule
0 1
Si  0.0000000000  0.0000000000  0.0000000000
H  -0.8655159407  0.8655159407  0.8655159407
H  0.8655159407  -0.8655159407  0.8655159407
H  -0.8655159407  -0.8655159407  -0.8655159407
H  0.8655159407  0.8655159407  -0.8655159407
$end


$rem
N_FROZEN_CORE FC
MEM_TOTAL 3750
MEM_STATIC 1500
AUX_BASIS_CORR rimp2-def2-QZVPPD
SCF_CONVERGENCE 7
SCF_ALGORITHM  GDM
method DSD-PBEPBE-D3
GEN_SCFMAN TRUE
UNRESTRICTED True
THRESH  14
SYMMETRY FALSE
SYM_IGNORE TRUE
max_scf_cycles 200

XC_GRID 000250000974
BASIS DEF2-QZVPPD


$end










