$molecule
0 1
P  -1.0799758265  1.5290434186  0.0150091641
H  1.3624166881  2.2010528316  0.3903255489
C  0.6501813190  1.3904760096  0.1850768115
O  1.2226695724  0.1687547497  0.0242798038
O  -0.7128862734  -1.9266294234  0.3937012646
H  -0.9145388258  -1.8007584253  1.3356727560
Si  -0.3337261903  -0.5476807591  -0.4666307276
H  -0.1941404636  -1.0142584018  -1.8774346212
$end


$rem
N_FROZEN_CORE FC
MEM_TOTAL 3750
MEM_STATIC 1500
AUX_BASIS_CORR rimp2-def2-QZVPPD
SCF_CONVERGENCE 7
SCF_ALGORITHM  GDM
method DSD-PBEPBE-D3
GEN_SCFMAN TRUE
UNRESTRICTED True
THRESH  14
SYMMETRY FALSE
SYM_IGNORE TRUE
max_scf_cycles 200

XC_GRID 000250000974
BASIS DEF2-QZVPPD


$end










