$molecule
0 1
H  0.0446296514  1.6738182612  1.7718740657
H  -0.0431273719  1.5285350627  2.5079352771
H  -1.0989583599  -0.1321722217  -0.6098150853
H  0.1996662919  -1.6766955015  -0.8760042231
H  0.9055744529  0.2053128265  -0.5650617487
H  -0.0083762511  -0.2711072207  -2.2986989698
Na  0.0010408851  -0.8639662057  1.1731102801
B  -0.0004492983  -0.4637250008  -1.1033395959
$end


$rem
N_FROZEN_CORE FC
MEM_TOTAL 3750
MEM_STATIC 1500
AUX_BASIS_CORR rimp2-def2-QZVPPD
SCF_CONVERGENCE 7
SCF_ALGORITHM  GDM
method DSD-PBEPBE-D3
GEN_SCFMAN TRUE
UNRESTRICTED True
THRESH  14
SYMMETRY FALSE
SYM_IGNORE TRUE
max_scf_cycles 200

XC_GRID 000250000974
BASIS DEF2-QZVPPD


$end










