$molecule
0 1
H  -1.6333198620  -1.0270368199  0.7743490816
H  0.4323123380  -0.0148888907  1.3507853470
H  2.1160536151  0.6327537009  0.4922415501
B  0.9356759730  0.5094637787  0.3261529699
Na  0.2596286599  -1.8961211734  -1.0538909102
Be  -0.8204633837  0.0096747393  0.3659997934
Si  0.1017831163  1.1450058753  -1.3277340326
H  -1.3916704565  0.6411487897  -0.9279037992
$end


$rem
N_FROZEN_CORE FC
MEM_TOTAL 3750
MEM_STATIC 1500
AUX_BASIS_CORR rimp2-def2-QZVPPD
SCF_CONVERGENCE 7
SCF_ALGORITHM  GDM
method DSD-PBEPBE-D3
GEN_SCFMAN TRUE
UNRESTRICTED True
THRESH  14
SYMMETRY FALSE
SYM_IGNORE TRUE
max_scf_cycles 200

XC_GRID 000250000974
BASIS DEF2-QZVPPD


$end










