$molecule
0 1
P  -0.8354418224  0.3905884155  -1.2511373756
H  -0.2135035340  1.3177065526  3.5088871207
C  1.0439016001  0.8123225606  -1.8169035721
Mg  -0.0373813804  0.4833433190  2.0347857367
H  -1.1077528824  -0.7974658717  -2.0370527889
H  0.0322774015  -1.6588400744  0.1426232187
C  0.9724198551  0.0185180758  -0.7937354180
C  0.1454807624  -0.5661729773  0.2125330785
$end


$rem
N_FROZEN_CORE FC
MEM_TOTAL 3750
MEM_STATIC 1500
AUX_BASIS_CORR rimp2-def2-QZVPPD
SCF_CONVERGENCE 7
SCF_ALGORITHM  GDM
method DSD-PBEPBE-D3
GEN_SCFMAN TRUE
UNRESTRICTED True
THRESH  14
SYMMETRY FALSE
SYM_IGNORE TRUE
max_scf_cycles 200

XC_GRID 000250000974
BASIS DEF2-QZVPPD


$end










