$molecule
0 1
H  0.0561004058  2.0101764391  1.0186792473
H  0.6529624759  -3.1323542585  -0.0317044101
H  -1.3402793709  1.0760694325  -0.0255123958
Mg  -1.1841266317  -0.8821040462  0.0525477758
H  0.1034777166  1.9612898261  -1.0482710631
C  0.5349092785  -2.0461135248  -0.0192947148
B  -0.0986864353  1.3853018452  -0.0045952138
Al  1.2756425611  -0.3722657133  0.0581507746
$end


$rem
N_FROZEN_CORE FC
MEM_TOTAL 3750
MEM_STATIC 1500
AUX_BASIS_CORR rimp2-def2-QZVPPD
SCF_CONVERGENCE 7
SCF_ALGORITHM  GDM
method DSD-PBEPBE-D3
GEN_SCFMAN TRUE
UNRESTRICTED True
THRESH  14
SYMMETRY FALSE
SYM_IGNORE TRUE
max_scf_cycles 200

XC_GRID 000250000974
BASIS DEF2-QZVPPD


$end










