$molecule
0 1
H  -0.7838525276  -0.6445236981  -0.1866988100
C  0.2210904671  -1.0400206827  -0.0336401081
H  -2.7138392365  1.1845123863  -0.0683417727
H  0.2932520809  -2.1191527591  0.1067143909
H  1.5254105949  1.4570288819  -0.2050838277
Si  1.6114189630  -0.0207221484  -0.0139816181
H  -3.1438899334  1.7358401540  0.2077947041
H  2.9904095915  -0.5529621338  0.1932370416
$end


$rem
N_FROZEN_CORE FC
MEM_TOTAL 3750
MEM_STATIC 1500
AUX_BASIS_CORR rimp2-def2-QZVPPD
SCF_CONVERGENCE 7
SCF_ALGORITHM  GDM
method DSD-PBEPBE-D3
GEN_SCFMAN TRUE
UNRESTRICTED True
THRESH  14
SYMMETRY FALSE
SYM_IGNORE TRUE
max_scf_cycles 200

XC_GRID 000250000974
BASIS DEF2-QZVPPD


$end










