$molecule
0 1
S  0.8014201314  -0.0035799486  1.5286504836
C  -0.6603949612  -0.0031208726  0.6479195656
H  1.6691955902  -0.9639446908  1.0121756041
H  -1.4781162763  -0.0097906219  1.3715382163
Cl  1.0348240098  -0.0029441490  -2.2891677965
H  1.6551956373  0.9871626304  1.0439371819
H  -2.1790228867  -0.0017355501  -2.0873982674
Al  -0.8431012445  -0.0020467975  -1.2276549877
$end


$rem
N_FROZEN_CORE FC
MEM_TOTAL 3750
MEM_STATIC 1500
AUX_BASIS_CORR rimp2-def2-QZVPPD
SCF_CONVERGENCE 7
SCF_ALGORITHM  GDM
method DSD-PBEPBE-D3
GEN_SCFMAN TRUE
UNRESTRICTED True
THRESH  14
SYMMETRY FALSE
SYM_IGNORE TRUE
max_scf_cycles 200

XC_GRID 000250000974
BASIS DEF2-QZVPPD


$end










