$molecule
0 1
H  0.9805453129  2.7436328697  0.0028321654
H  0.0416194996  -2.4273703503  0.0007337970
H  1.6667807623  -0.6096054167  -0.0008807253
C  -0.2728699968  -1.3766456593  0.0001384077
H  -1.6233559327  1.7299644329  -0.0026809105
Al  -0.0357138330  1.5044290186  -0.0001224710
C  0.5997719075  -0.3500472975  -0.0006844564
H  -1.3567777198  -1.2143575973  0.0006641931
$end


$rem
N_FROZEN_CORE FC
MEM_TOTAL 3750
MEM_STATIC 1500
AUX_BASIS_CORR rimp2-def2-QZVPPD
SCF_CONVERGENCE 7
SCF_ALGORITHM  GDM
method DSD-PBEPBE-D3
GEN_SCFMAN TRUE
UNRESTRICTED True
THRESH  14
SYMMETRY FALSE
SYM_IGNORE TRUE
max_scf_cycles 200

XC_GRID 000250000974
BASIS DEF2-QZVPPD


$end










