$molecule
0 1
H  -1.3681708385  0.3314513073  0.3118417869
H  2.8218319626  0.1986892350  0.8604341196
N  -0.9370007599  1.1753087457  -0.1678303625
H  -1.3987726440  2.0829909669  0.1334382476
Cl  -0.4408619502  -1.9904160839  -0.5000647219
H  -0.9563097036  -3.0687587686  0.0159531182
N  -0.0281261137  1.1010004642  -0.9662569148
H  2.3074100474  0.1697341334  0.3124847271
$end


$rem
N_FROZEN_CORE FC
MEM_TOTAL 3750
MEM_STATIC 1500
AUX_BASIS_CORR rimp2-def2-QZVPPD
SCF_CONVERGENCE 7
SCF_ALGORITHM  GDM
method DSD-PBEPBE-D3
GEN_SCFMAN TRUE
UNRESTRICTED True
THRESH  14
SYMMETRY FALSE
SYM_IGNORE TRUE
max_scf_cycles 200

XC_GRID 000250000974
BASIS DEF2-QZVPPD


$end










