$molecule
0 1
H  0.1295515741  -1.6960193629  0.9831297202
C  0.0664724529  -1.2130459315  -0.0079474073
Si  1.2159205094  0.3426378383  -0.0077287770
H  0.4347017877  -1.9584192209  -0.7309839969
H  0.2031373396  2.5602614121  0.0120821175
H  -0.9946972660  -1.0098270965  -0.2233260750
N  -0.0239835852  1.5686857499  -0.0063852689
H  -1.0311028125  1.4057266115  -0.0188403126
$end


$rem
N_FROZEN_CORE FC
MEM_TOTAL 3750
MEM_STATIC 1500
AUX_BASIS_CORR rimp2-def2-QZVPPD
SCF_CONVERGENCE 7
SCF_ALGORITHM  GDM
method DSD-PBEPBE-D3
GEN_SCFMAN TRUE
UNRESTRICTED True
THRESH  14
SYMMETRY FALSE
SYM_IGNORE TRUE
max_scf_cycles 200

XC_GRID 000250000974
BASIS DEF2-QZVPPD


$end










