$molecule
0 1
H  0.0022104934  -2.0681338315  1.1178392343
H  -0.0012495804  -1.8549761306  1.8415342878
H  -0.9707702614  0.7855194050  -1.7149527693
H  0.2088425639  -0.5215429855  -1.5380296904
H  0.7607487762  1.1432552461  -1.7686836727
H  -0.0013067689  1.1645749953  2.5068472040
C  0.0006243055  0.5252389530  -1.2640499476
Mg  0.0009004719  0.8260643483  0.8194953541
$end


$rem
N_FROZEN_CORE FC
MEM_TOTAL 3750
MEM_STATIC 1500
AUX_BASIS_CORR rimp2-def2-QZVPPD
SCF_CONVERGENCE 7
SCF_ALGORITHM  GDM
method DSD-PBEPBE-D3
GEN_SCFMAN TRUE
UNRESTRICTED True
THRESH  14
SYMMETRY FALSE
SYM_IGNORE TRUE
max_scf_cycles 200

XC_GRID 000250000974
BASIS DEF2-QZVPPD


$end










