$molecule
0 1
H  0.6484884178  -1.4777795501  -0.1372207990
H  -0.6265932407  -0.1858990836  -3.0988972347
H  -0.4009350724  -0.7147742910  -2.6112798689
H  0.7447196074  0.8279408814  2.2008008993
H  0.4168366292  -1.0454357264  0.4824185348
H  -0.8687286967  0.8570568581  2.1338935651
Na  0.1271132197  1.0956602126  -0.5341802211
N  -0.0409008643  0.6432306990  1.5644651244
$end


$rem
N_FROZEN_CORE FC
MEM_TOTAL 3750
MEM_STATIC 1500
AUX_BASIS_CORR rimp2-def2-QZVPPD
SCF_CONVERGENCE 7
SCF_ALGORITHM  GDM
method DSD-PBEPBE-D3
GEN_SCFMAN TRUE
UNRESTRICTED True
THRESH  14
SYMMETRY FALSE
SYM_IGNORE TRUE
max_scf_cycles 200

XC_GRID 000250000974
BASIS DEF2-QZVPPD


$end










