$molecule
0 2
N  -0.4545756013  1.8864657450  0.0225888998
Li  -0.8248056052  -1.6507233218  -0.2146870386
B  -0.8071953300  0.4002719347  0.2638058885
H  -1.7807340989  -0.0315383430  -0.3855583022
C  0.5442831894  1.1978342681  -0.2865358815
H  1.0096786641  -1.1521136506  -0.7016869323
H  1.4996911035  -0.3660331388  1.1449325132
B  0.8136576785  -0.2841634934  0.1571408531
$end


$rem
N_FROZEN_CORE FC
MEM_TOTAL 3750
MEM_STATIC 1500
AUX_BASIS_CORR rimp2-def2-QZVPPD
SCF_CONVERGENCE 7
SCF_ALGORITHM  GDM
method DSD-PBEPBE-D3
GEN_SCFMAN TRUE
UNRESTRICTED True
THRESH  14
SYMMETRY FALSE
SYM_IGNORE TRUE
max_scf_cycles 200

XC_GRID 000250000974
BASIS DEF2-QZVPPD


$end










