$molecule
0 2
Si  -1.9369775780  -0.4464736763  -0.1991311206
H  0.6744167635  0.7391080497  1.9973941283
H  -3.3745875114  -0.1502551282  -0.6196947281
H  1.3380591975  0.5334340446  2.2937296572
C  -0.4933118962  0.0279601986  -1.0257820124
Mg  1.4329999381  -0.4338581358  -0.4365245965
H  -0.6879781850  0.5827773785  -1.9594967718
H  3.0473792716  -0.8526927311  -0.0504945562
$end


$rem
N_FROZEN_CORE FC
MEM_TOTAL 3750
MEM_STATIC 1500
AUX_BASIS_CORR rimp2-def2-QZVPPD
SCF_CONVERGENCE 7
SCF_ALGORITHM  GDM
method DSD-PBEPBE-D3
GEN_SCFMAN TRUE
UNRESTRICTED True
THRESH  14
SYMMETRY FALSE
SYM_IGNORE TRUE
max_scf_cycles 200

XC_GRID 000250000974
BASIS DEF2-QZVPPD


$end










