$molecule
0 2
C  0.1823942323  0.8179223874  -0.1728850578
H  -2.3261269083  0.0403056864  1.0117356228
H  2.2479842550  0.7310526243  -0.0187106512
C  1.3400523477  0.1081889684  -0.1206615638
H  0.1137907628  1.9191404060  -0.2113274101
Si  -1.4332915444  -0.1415161311  -0.2006136066
H  -1.0293744695  -1.6402859907  -0.1387313000
Li  0.9045713243  -1.8348079508  -0.1488060333
$end


$rem
N_FROZEN_CORE FC
MEM_TOTAL 3750
MEM_STATIC 1500
AUX_BASIS_CORR rimp2-def2-QZVPPD
SCF_CONVERGENCE 7
SCF_ALGORITHM  GDM
method DSD-PBEPBE-D3
GEN_SCFMAN TRUE
UNRESTRICTED True
THRESH  14
SYMMETRY FALSE
SYM_IGNORE TRUE
max_scf_cycles 200

XC_GRID 000250000974
BASIS DEF2-QZVPPD


$end










