$molecule
0 1
H  0.9169318226  -0.2847142016  1.2542650495
H  0.7023367581  -2.7031132700  -1.3829180604
Si  -0.2758562738  0.2258269437  0.4844713398
Si  -0.3560026810  1.9844614372  -0.9515309132
Cl  -0.3265610335  -2.8120294361  -0.5986378804
H  1.1848399068  1.9554314533  -0.8327264568
H  -1.5098876216  -0.2426530043  1.2096364860
H  -0.3358008776  1.8767900777  0.8174404355
$end


$rem
N_FROZEN_CORE FC
MEM_TOTAL 3750
MEM_STATIC 1500
AUX_BASIS_CORR rimp2-def2-QZVPPD
SCF_CONVERGENCE 7
SCF_ALGORITHM  GDM
method DSD-PBEPBE-D3
GEN_SCFMAN TRUE
UNRESTRICTED True
THRESH  14
SYMMETRY FALSE
SYM_IGNORE TRUE
max_scf_cycles 200

XC_GRID 000250000974
BASIS DEF2-QZVPPD


$end










