$molecule
0 1
Al  -1.1024204118  -1.2251510956  0.5456042434
Li  -0.5280883000  0.5223799381  -1.2383341952
H  -2.0346803445  -0.0853549080  -0.3435425299
C  0.6565257492  0.2192584312  0.4886266661
H  -0.1611116623  -1.5703000365  -0.9889821009
Al  1.3589393679  -1.7966972181  0.1502635817
H  1.0088695569  2.4855438005  0.7962142883
C  0.8019660445  1.4503210884  0.5901500466
$end


$rem
N_FROZEN_CORE FC
MEM_TOTAL 3750
MEM_STATIC 1500
AUX_BASIS_CORR rimp2-def2-QZVPPD
SCF_CONVERGENCE 7
SCF_ALGORITHM  GDM
method DSD-PBEPBE-D3
GEN_SCFMAN TRUE
UNRESTRICTED True
THRESH  14
SYMMETRY FALSE
SYM_IGNORE TRUE
max_scf_cycles 200

XC_GRID 000250000974
BASIS DEF2-QZVPPD


$end










