$molecule
0 1
H  0.0146780229  1.9920690739  1.9435350084
H  -0.0139267574  1.4162681471  2.4281555598
H  0.0042516235  2.0614003068  -1.1800423398
H  -0.4723872003  -1.0452505181  0.5544826910
H  -0.7929329061  -1.3847162044  -1.6065619386
Mg  -0.0008797905  0.3838550714  -0.8695455955
H  1.2610995186  -1.2535766231  -0.7999610980
Si  0.0000974895  -2.1700492535  -0.4700622873
$end


$rem
N_FROZEN_CORE FC
MEM_TOTAL 3750
MEM_STATIC 1500
AUX_BASIS_CORR rimp2-def2-QZVPPD
SCF_CONVERGENCE 7
SCF_ALGORITHM  GDM
method DSD-PBEPBE-D3
GEN_SCFMAN TRUE
UNRESTRICTED True
THRESH  14
SYMMETRY FALSE
SYM_IGNORE TRUE
max_scf_cycles 200

XC_GRID 000250000974
BASIS DEF2-QZVPPD


$end










