$molecule
0 2
N  0.0005870663  -0.1984235193  1.8642313481
Be  -0.0048682042  0.6487440982  0.6060302063
H  -0.0397454502  -1.2134186509  1.8862178542
H  -0.0448531105  0.7521536861  -0.8196176075
H  0.0411679795  0.1636538415  2.8126323878
H  0.0222381203  1.9305885095  -0.0262839322
H  0.0387101324  -1.2450463253  -3.4772619632
H  -0.0132365337  -0.8382516398  -2.8459482935
$end


$rem
N_FROZEN_CORE FC
MEM_TOTAL 3750
INTERNAL_STABILITY TRUE
MEM_STATIC 1500
AUX_BASIS_CORR rimp2-def2-QZVPPD
SCF_CONVERGENCE 7
SCF_ALGORITHM  GDM
method DSD-PBEPBE-D3
GEN_SCFMAN TRUE
UNRESTRICTED True
THRESH  14
SYMMETRY FALSE
SYM_IGNORE TRUE
max_scf_cycles 200

XC_GRID 000250000974
BASIS DEF2-QZVPPD


$end










