$molecule
0 2
H  -0.0726683258  1.3819838300  2.0391138528
H  0.2596265883  1.7361625763  1.4648810942
H  0.1312111183  -1.9404617442  1.3612680659
H  -0.9500891581  -0.7634533713  -0.5328462846
H  0.0397803900  -3.0097374738  -0.8740127391
H  0.2431506128  2.5150823264  -1.7733029534
Si  0.1378060917  -1.7135226826  -0.1226589451
H  0.2111826828  1.7939465393  -1.5624420908
$end


$rem
N_FROZEN_CORE FC
MEM_TOTAL 3750
MEM_STATIC 1500
AUX_BASIS_CORR rimp2-def2-QZVPPD
SCF_CONVERGENCE 7
SCF_ALGORITHM  GDM
method DSD-PBEPBE-D3
GEN_SCFMAN TRUE
UNRESTRICTED True
THRESH  14
SYMMETRY FALSE
SYM_IGNORE TRUE
max_scf_cycles 200

XC_GRID 000250000974
BASIS DEF2-QZVPPD


$end










