$molecule
0 1
H  1.6128280344  -1.5283281056  -0.0001460974
Be  0.4259876095  -0.7990204601  -0.0012638387
C  0.1319133619  0.8032364249  -0.0009678648
H  0.1538653884  1.8949145262  -0.0018895238
B  -1.1571767116  0.1004568932  0.0006802294
Li  2.1755484682  0.3769578254  0.0012084328
H  -1.0144697547  -1.2002330075  0.0013035867
H  -2.3284963959  0.3520159036  0.0010750757
$end


$rem
N_FROZEN_CORE FC
MEM_TOTAL 3750
MEM_STATIC 1500
AUX_BASIS_CORR rimp2-def2-QZVPPD
SCF_CONVERGENCE 7
SCF_ALGORITHM  GDM
method DSD-PBEPBE-D3
GEN_SCFMAN TRUE
UNRESTRICTED True
THRESH  14
SYMMETRY FALSE
SYM_IGNORE TRUE
max_scf_cycles 200

XC_GRID 000250000974
BASIS DEF2-QZVPPD


$end










