$molecule
0 1
N  0.5957135371  0.2143707346  -1.0919452225
C  -0.4860166267  0.0998944384  -1.8211651428
Si  0.0381256011  1.0902376412  0.4576882153
H  -1.3109379740  0.6811468309  -1.2633217165
H  1.4655544413  -0.2145084008  -1.4181740392
H  0.2098006800  -1.2780762708  1.2384428629
H  -0.4741052568  -0.2701937078  2.4083810837
N  -0.0381344021  -0.3228712656  1.4900939589
$end


$rem
N_FROZEN_CORE FC
MEM_TOTAL 3750
MEM_STATIC 1500
AUX_BASIS_CORR rimp2-def2-QZVPPD
SCF_CONVERGENCE 7
SCF_ALGORITHM  GDM
method DSD-PBEPBE-D3
GEN_SCFMAN TRUE
UNRESTRICTED True
THRESH  14
SYMMETRY FALSE
SYM_IGNORE TRUE
max_scf_cycles 200

XC_GRID 000250000974
BASIS DEF2-QZVPPD


$end










