$molecule
0 2
H  -1.8574311181  -0.9280309866  -1.4278937847
Li  0.7139354518  -1.1221238911  0.8943834856
H  -1.0054468504  -1.3430334805  1.2254648718
Na  -1.0684419235  0.7001837385  0.7414406270
H  -1.9660944991  -0.4760323048  -2.0236353011
H  2.0907174227  1.3485686233  0.9725550943
H  1.6759039686  1.0718407754  -0.7067858281
C  1.4168575479  0.7486275259  0.3244708354
$end


$rem
N_FROZEN_CORE FC
MEM_TOTAL 3750
MEM_STATIC 1500
AUX_BASIS_CORR rimp2-def2-QZVPPD
SCF_CONVERGENCE 7
SCF_ALGORITHM  GDM
method DSD-PBEPBE-D3
GEN_SCFMAN TRUE
UNRESTRICTED True
THRESH  14
SYMMETRY FALSE
SYM_IGNORE TRUE
max_scf_cycles 200

XC_GRID 000250000974
BASIS DEF2-QZVPPD


$end










