$molecule
0 1
H  1.9260361901  0.0184880679  -0.7499182412
H  -0.7333995146  0.0208411047  -2.4293139893
H  -1.3548996575  -0.0027122711  -1.9950043956
H  -0.6610044085  -1.0558170391  1.3597363179
H  -0.6884255940  1.0331832207  1.3814186648
H  1.1565462498  0.0149381759  1.0509478907
Li  0.3011000900  -0.0205727738  -0.6721449606
P  0.0540466447  -0.0083484852  2.0542787133
$end


$rem
N_FROZEN_CORE FC
MEM_TOTAL 3750
MEM_STATIC 1500
AUX_BASIS_CORR rimp2-def2-QZVPPD
SCF_CONVERGENCE 7
SCF_ALGORITHM  GDM
method DSD-PBEPBE-D3
GEN_SCFMAN TRUE
UNRESTRICTED True
THRESH  14
SYMMETRY FALSE
SYM_IGNORE TRUE
max_scf_cycles 200

XC_GRID 000250000974
BASIS DEF2-QZVPPD


$end










