$molecule
0 2
Be  0.2454870890  -0.4560276105  -0.6703659482
H  -0.4085302263  2.1069683338  2.8214754919
N  0.2037085093  -0.7264236383  0.8152132455
H  0.4008972732  -1.6218177113  1.2514060442
H  0.3303083348  2.0043067779  2.7216068841
Cl  0.2969598519  -0.1293601787  -2.4703242549
H  -0.0269693321  -0.0374890830  1.5248508146
H  -1.0418614998  -1.1401568898  -5.9938622772
$end


$rem
N_FROZEN_CORE FC
MEM_TOTAL 3750
MEM_STATIC 1500
AUX_BASIS_CORR rimp2-def2-QZVPPD
SCF_CONVERGENCE 7
SCF_ALGORITHM  GDM
method DSD-PBEPBE-D3
GEN_SCFMAN TRUE
UNRESTRICTED True
THRESH  14
SYMMETRY FALSE
SYM_IGNORE TRUE
max_scf_cycles 200

XC_GRID 000250000974
BASIS DEF2-QZVPPD


$end










