$molecule
0 1
H  -1.7948671074  0.0605302909  -0.7223263023
Li  -0.8442956995  -0.6763204301  0.6958158843
H  0.6003751231  1.6088873525  0.1107605956
N  0.1255758284  0.7434344204  0.3792765236
H  -2.3596263989  -0.4751741082  -0.7294640851
H  1.8256431330  -0.3964365075  0.8370626690
H  1.4181292977  -0.4658145663  -0.7603221996
N  1.0290658236  -0.3991064517  0.1891969146
$end


$rem
N_FROZEN_CORE FC
MEM_TOTAL 3750
MEM_STATIC 1500
AUX_BASIS_CORR rimp2-def2-QZVPPD
SCF_CONVERGENCE 7
SCF_ALGORITHM  GDM
method DSD-PBEPBE-D3
GEN_SCFMAN TRUE
UNRESTRICTED True
THRESH  14
SYMMETRY FALSE
SYM_IGNORE TRUE
max_scf_cycles 200

XC_GRID 000250000974
BASIS DEF2-QZVPPD


$end










