$molecule
0 1
H  -1.0257543138  -0.0526770576  1.3918075792
H  -0.6193163776  -1.2623775769  -1.4270451063
C  0.0001166987  -0.0002080067  1.0010785205
H  0.5584831268  -0.8618370223  1.3932320006
H  1.4022655285  0.0941568116  -1.4270764474
H  -0.7837512719  1.1674088639  -1.4257595226
H  0.4678408000  0.9157006385  1.3887259206
Si  0.0001158092  -0.0001666504  -0.8949629446
$end


$rem
N_FROZEN_CORE FC
MEM_TOTAL 3750
MEM_STATIC 1500
AUX_BASIS_CORR rimp2-def2-QZVPPD
SCF_CONVERGENCE 7
SCF_ALGORITHM  GDM
method DSD-PBEPBE-D3
GEN_SCFMAN TRUE
UNRESTRICTED True
THRESH  14
SYMMETRY FALSE
SYM_IGNORE TRUE
max_scf_cycles 200

XC_GRID 000250000974
BASIS DEF2-QZVPPD


$end










