$molecule
0 1
O  -1.2425533169  0.0468927847  0.6874620955
Al  -0.2352453314  -0.1985888020  2.3078020701
H  1.8162022000  1.6294109171  -1.1377993805
H  0.6903470533  -1.1090510836  0.8853277444
H  -2.0613662867  0.4916352021  0.4264749595
Be  -0.2388911161  -0.7797623529  -0.2029711590
H  1.5076381689  1.0140019558  -1.4454709689
H  -0.2361313711  -1.0945386211  -1.5208253610
$end


$rem
N_FROZEN_CORE FC
MEM_TOTAL 3750
MEM_STATIC 1500
AUX_BASIS_CORR rimp2-def2-QZVPPD
SCF_CONVERGENCE 7
SCF_ALGORITHM  GDM
method DSD-PBEPBE-D3
GEN_SCFMAN TRUE
UNRESTRICTED True
THRESH  14
SYMMETRY FALSE
SYM_IGNORE TRUE
max_scf_cycles 200

XC_GRID 000250000974
BASIS DEF2-QZVPPD


$end










