$molecule
0 2
H  0.2452342010  -2.4821538396  1.0918480855
H  -0.1965700439  -0.4290649976  -1.6936586110
H  0.2942804955  -2.6783820358  0.3618624414
H  -0.9561176591  1.9599235206  -0.4301405180
Li  -0.2169694622  -0.7113895391  -0.0720862137
F  -0.1204627410  0.7924451527  1.0793351215
H  0.9605635202  1.7645765197  -0.4139470460
C  -0.0099583105  1.7840452191  0.0767867402
$end


$rem
N_FROZEN_CORE FC
MEM_TOTAL 3750
MEM_STATIC 1500
AUX_BASIS_CORR rimp2-def2-QZVPPD
SCF_CONVERGENCE 7
SCF_ALGORITHM  GDM
method DSD-PBEPBE-D3
GEN_SCFMAN TRUE
UNRESTRICTED True
THRESH  14
SYMMETRY FALSE
SYM_IGNORE TRUE
max_scf_cycles 200

XC_GRID 000250000974
BASIS DEF2-QZVPPD


$end










