$molecule
0 2
H  0.9961307124  0.6806059407  0.9037621173
C  -0.0395803399  0.9160156321  0.6156148223
H  -0.8703094130  -2.7345540838  0.7604795708
H  -0.6902920224  1.3779539419  1.3584108277
H  0.7457373784  -0.7622980429  -1.5368833221
H  0.2724924887  0.7058049633  -1.2516542470
Mg  -0.1413229935  -1.5071285485  -0.1938342725
O  -0.2728558107  1.3236001972  -0.6558954965
$end


$rem
N_FROZEN_CORE FC
MEM_TOTAL 3750
MEM_STATIC 1500
AUX_BASIS_CORR rimp2-def2-QZVPPD
SCF_CONVERGENCE 7
SCF_ALGORITHM  GDM
method DSD-PBEPBE-D3
GEN_SCFMAN TRUE
UNRESTRICTED True
THRESH  14
SYMMETRY FALSE
SYM_IGNORE TRUE
max_scf_cycles 200

XC_GRID 000250000974
BASIS DEF2-QZVPPD


$end










