$molecule
0 1
Li  0.0923907817  -0.1839251636  -0.3574752843
H  -0.1646571978  -0.7162252934  1.8440493687
H  -1.5384027940  -1.1503940841  -1.3048780224
H  -1.9270198004  -0.6080970139  -0.9497274790
F  1.7103652603  -0.4002820172  -0.4030797876
H  0.5394664359  -0.7274244753  1.5509211031
H  0.9522916455  1.6674100648  -0.2032821224
H  0.3355656687  2.1189379828  -0.1765277762
$end


$rem
N_FROZEN_CORE FC
MEM_TOTAL 3750
MEM_STATIC 1500
AUX_BASIS_CORR rimp2-def2-QZVPPD
SCF_CONVERGENCE 7
SCF_ALGORITHM  GDM
method DSD-PBEPBE-D3
GEN_SCFMAN TRUE
UNRESTRICTED True
THRESH  14
SYMMETRY FALSE
SYM_IGNORE TRUE
max_scf_cycles 200

XC_GRID 000250000974
BASIS DEF2-QZVPPD


$end










