$molecule
0 1
H  0.0391691661  -1.7210171079  -0.8636755682
H  -1.1146320348  1.7116269933  0.1119777169
H  -1.2414674325  -0.4177439460  -0.7905647598
S  0.0168471835  1.5318627165  0.8835113720
C  -0.3061024191  -0.8063777723  -0.3651116381
Si  0.1093935569  -0.7971673570  1.5567724963
C  0.7833352365  0.1454729199  -0.0025175910
H  1.7134567433  0.3533435535  -0.5303920282
$end


$rem
N_FROZEN_CORE FC
MEM_TOTAL 3750
MEM_STATIC 1500
AUX_BASIS_CORR rimp2-def2-QZVPPD
SCF_CONVERGENCE 7
SCF_ALGORITHM  GDM
method DSD-PBEPBE-D3
GEN_SCFMAN TRUE
UNRESTRICTED True
THRESH  14
SYMMETRY FALSE
SYM_IGNORE TRUE
max_scf_cycles 200

XC_GRID 000250000974
BASIS DEF2-QZVPPD


$end










