$molecule
0 1
P  -0.6328772148  -0.0411223855  -1.9629161470
C  -0.0632299615  -0.9092526448  -0.6250983310
H  1.0856059698  1.7241685327  0.8114138966
Mg  -0.6477542108  -0.2879470990  1.2905356769
H  -0.0426775367  -0.7744871602  -3.0777421942
H  0.5795132909  -1.7820620020  -0.8046790249
H  0.9254704564  1.9687422679  1.5086575020
H  -1.2040507933  0.1019604908  2.8598286217
$end


$rem
N_FROZEN_CORE FC
MEM_TOTAL 3750
MEM_STATIC 1500
AUX_BASIS_CORR rimp2-def2-QZVPPD
SCF_CONVERGENCE 7
SCF_ALGORITHM  GDM
method DSD-PBEPBE-D3
GEN_SCFMAN TRUE
UNRESTRICTED True
THRESH  14
SYMMETRY FALSE
SYM_IGNORE TRUE
max_scf_cycles 200

XC_GRID 000250000974
BASIS DEF2-QZVPPD


$end










