$molecule
0 2
H  0.4994945996  -2.6180149544  -0.0107013094
Be  -0.4798401071  -1.4341751469  -0.0224187299
H  1.0525590771  -1.9724917399  0.0216332242
Al  -0.1440321092  2.6646428287  -0.0111283389
B  -0.2147217582  0.4007111041  0.0066071156
H  0.4126817107  0.8365904221  -0.9835509131
H  0.3981837277  0.8364019934  1.0036021789
F  -1.5243251407  1.2863354928  -0.0040432274
$end


$rem
N_FROZEN_CORE FC
MEM_TOTAL 3750
MEM_STATIC 1500
AUX_BASIS_CORR rimp2-def2-QZVPPD
SCF_CONVERGENCE 7
SCF_ALGORITHM  GDM
method DSD-PBEPBE-D3
GEN_SCFMAN TRUE
UNRESTRICTED True
THRESH  14
SYMMETRY FALSE
SYM_IGNORE TRUE
max_scf_cycles 200

XC_GRID 000250000974
BASIS DEF2-QZVPPD


$end










