$molecule
0 1
P  0.5173073009  -0.6719089418  -0.3717099483
Cl  -0.1965500939  -0.4724330693  2.5239473189
N  -0.8627281403  -0.1677333106  -1.2547839341
H  -1.6637689298  -0.7897192928  -1.1834677702
H  1.4231624384  0.6337166987  1.3736963662
N  0.4645617538  0.3926210055  1.0884641665
H  -1.1367056018  0.8143749890  -1.2222757769
H  1.4547212725  0.2610819214  -0.9538704222
$end


$rem
N_FROZEN_CORE FC
MEM_TOTAL 3750
MEM_STATIC 1500
AUX_BASIS_CORR rimp2-def2-QZVPPD
SCF_CONVERGENCE 7
SCF_ALGORITHM  GDM
method DSD-PBEPBE-D3
GEN_SCFMAN TRUE
UNRESTRICTED True
THRESH  14
SYMMETRY FALSE
SYM_IGNORE TRUE
max_scf_cycles 200

XC_GRID 000250000974
BASIS DEF2-QZVPPD


$end










