$molecule
0 1
H  0.9655450109  -1.6667978306  1.1682138736
Mg  -0.6061426322  -1.3530232094  0.2180713946
C  -0.1753969477  1.6925930142  -0.1020015788
O  -0.5544368500  2.6450685686  0.4857939042
H  -2.0717921250  -2.2077339090  -0.0601223358
Li  1.7709226962  -0.2117513055  0.6092359289
H  0.4115590133  0.5315592258  -1.7010514446
C  0.2597418345  0.5700854459  -0.6181397422
$end


$rem
N_FROZEN_CORE FC
MEM_TOTAL 3750
MEM_STATIC 1500
AUX_BASIS_CORR rimp2-def2-QZVPPD
SCF_CONVERGENCE 7
SCF_ALGORITHM  GDM
method DSD-PBEPBE-D3
GEN_SCFMAN TRUE
UNRESTRICTED True
THRESH  14
SYMMETRY FALSE
SYM_IGNORE TRUE
max_scf_cycles 200

XC_GRID 000250000974
BASIS DEF2-QZVPPD


$end










