$molecule
0 1
Li  -1.2047509600  -2.4335934416  -0.0010852894
Si  1.2566640872  -1.8524041078  0.0000827679
Be  -0.4598088447  -0.2131689306  -0.0011732738
B  1.3580470263  -0.0209641938  -0.0030316912
H  0.8846863722  2.5445426750  0.0021651584
B  0.6062520815  1.3800256403  0.0002603488
H  -1.7681615920  -0.7258503411  -0.0006443645
H  -0.6729281705  1.3214126996  0.0034263438
$end


$rem
N_FROZEN_CORE FC
MEM_TOTAL 3750
MEM_STATIC 1500
AUX_BASIS_CORR rimp2-def2-QZVPPD
SCF_CONVERGENCE 7
SCF_ALGORITHM  GDM
method DSD-PBEPBE-D3
GEN_SCFMAN TRUE
UNRESTRICTED True
THRESH  14
SYMMETRY FALSE
SYM_IGNORE TRUE
max_scf_cycles 200

XC_GRID 000250000974
BASIS DEF2-QZVPPD


$end










