$molecule
0 2
H  -0.1686773533  -2.9654055606  1.2904609341
Be  -0.0416783926  -1.3507274039  -1.2464352981
H  -0.1789249937  -2.6118874654  1.9552092528
P  -0.0350120728  0.6823525040  -0.9102823172
H  0.8794483573  0.4888381616  0.1960771040
H  -0.0647538071  -2.6678124837  -1.5172652080
H  -0.1687433356  4.5515389476  0.2770113316
H  -0.2216584022  3.8731033004  -0.0447757991
$end


$rem
N_FROZEN_CORE FC
MEM_TOTAL 3750
MEM_STATIC 1500
AUX_BASIS_CORR rimp2-def2-QZVPPD
SCF_CONVERGENCE 7
SCF_ALGORITHM  GDM
method DSD-PBEPBE-D3
GEN_SCFMAN TRUE
UNRESTRICTED True
THRESH  14
SYMMETRY FALSE
SYM_IGNORE TRUE
max_scf_cycles 200

XC_GRID 000250000974
BASIS DEF2-QZVPPD


$end










