$molecule
0 1
B  0.0000000000  0.0000000000  1.9508745021
P  0.0000000000  0.0000000000  -0.0290669101
C  0.8519006970  -1.4755352903  -0.6896748701
C  0.8519006970  1.4755352903  -0.6896748701
C  -1.7038013941  0.0000000000  -0.6896748701
Cl  -0.8969046174  1.5534843669  2.4634643897
Cl  1.7938092348  0.0000000000  2.4634643897
Cl  -0.8969046174  -1.5534843669  2.4634643897
H  -2.2183414557  -0.8866817593  -0.3163668610
H  -2.2183414557  0.8866817593  -0.3163668610
H  -1.6984186251  0.0000000000  -1.7816583283
H  0.3412817992  2.3644809345  -0.3163668610
H  1.8770596565  1.4777991752  -0.3163668610
H  0.8492093125  1.4708736756  -1.7816583283
H  0.8492093125  -1.4708736756  -1.7816583283
H  1.8770596565  -1.4777991752  -0.3163668610
H  0.3412817992  -2.3644809345  -0.3163668610
$end


$rem
N_FROZEN_CORE FC
MEM_TOTAL 15000
MEM_STATIC 6000
AUX_BASIS_CORR rimp2-def2-QZVPPD
SCF_CONVERGENCE 7
SCF_ALGORITHM  GDM
method DSD-PBEPBE-D3
GEN_SCFMAN TRUE
UNRESTRICTED True
THRESH  14
SYMMETRY FALSE
SYM_IGNORE TRUE
max_scf_cycles 200

XC_GRID 000099000590
BASIS DEF2-QZVPPD


$end










