$molecule
0 1
P  -0.6262579644  -0.0478346050  0.1405303494
B  2.9790480845  -0.0106300174  0.2591359381
C  -1.1419946577  1.6603552672  0.3784221284
C  -0.5376184228  -0.4511930098  -1.6046713059
C  -1.8164651082  -1.1510106333  0.9357628142
H  -2.1059770257  1.8314956088  -0.1034960277
H  -1.2240000721  1.8712215888  1.4455775583
H  -0.3761673261  2.3014733258  -0.0584963754
H  -2.7977255538  -1.0492448263  0.4698535681
H  -1.4692631929  -2.1795933166  0.8270541763
H  -1.8925980706  -0.9107880480  1.9970412452
H  -1.5164267044  -0.2809457578  -2.0584623648
H  -0.2364386939  -1.4925690797  -1.7089016858
H  0.2252765892  0.1774543935  -2.0621266088
Cl  2.2301741911  1.4592739637  -0.7611983629
Cl  2.4320893021  -1.6539305321  -0.5561488281
Cl  4.8034480006  0.1250740563  0.3350335221
H  0.5950787030  -0.2411259620  0.7763342745
H  2.4758179223  0.0425175840  1.3487559846
$end


$rem
N_FROZEN_CORE FC
MEM_TOTAL 15000
MEM_STATIC 6000
AUX_BASIS_CORR rimp2-def2-QZVPPD
SCF_CONVERGENCE 7
SCF_ALGORITHM  GDM
method DSD-PBEPBE-D3
GEN_SCFMAN TRUE
UNRESTRICTED True
THRESH  14
SYMMETRY FALSE
SYM_IGNORE TRUE
max_scf_cycles 200

XC_GRID 000099000590
BASIS DEF2-QZVPPD


$end










