$molecule
0 5
He -1.738350000  0.000000000  0.000000000
He  1.738350000  0.000000000  0.000000000
$end


$rem
AUX_BASIS_CORR rimp2-def2-QZVPPD
N_FROZEN_CORE FC
MEM_TOTAL 3750
SCF_ALGORITHM GDM_QLS
MEM_STATIC 1500
SCF_CONVERGENCE 7
method DSD-PBEPBE-D3
GEN_SCFMAN TRUE
UNRESTRICTED True
THRESH  14
SYMMETRY FALSE
SYM_IGNORE TRUE
max_scf_cycles 200

XC_GRID 000200000974
BASIS d-aug-cc-pV5Z
SCF_GUESS_MIX = 3
SCF_GUESS SADMO
$end










