$molecule
0 1
Si  0.0000000000  0.0000000000  1.1609054000
Si  0.0000000000  0.0000000000  -1.1609054000
H  1.1970290000  0.6911050000  1.6779620000
H  0.0000000000  -1.3822101000  1.6779620000
H  -1.1970290000  0.6911050000  1.6779620000
H  1.1970290000  -0.6911050000  -1.6779620000
H  0.0000000000  1.3822101000  -1.6779620000
H  -1.1970290000  -0.6911050000  -1.6779620000
$end


$rem
N_FROZEN_CORE FC
MEM_TOTAL 3750
MEM_STATIC 1500
AUX_BASIS_CORR rimp2-def2-QZVPPD
SCF_CONVERGENCE 7
SCF_ALGORITHM  GDM
method DSD-PBEPBE-D3
GEN_SCFMAN TRUE
UNRESTRICTED True
THRESH  14
SYMMETRY FALSE
SYM_IGNORE TRUE
max_scf_cycles 200

XC_GRID 000099000590
BASIS DEF2-QZVPPD


$end










