$molecule
1 1
Si  0.5476832273  0.0968872897  0.0000000000
H  -1.2001354923  -0.6214312307  0.0000000000
H  0.3553761341  1.5518770173  0.0000000000
H  0.8165148857  -0.5859895751  1.2683124421
H  0.8165148857  -0.5859895751  -1.2683124421
H  -1.3359536406  0.1446460740  0.0000000000
$end


$rem
N_FROZEN_CORE FC
MEM_TOTAL 3750
MEM_STATIC 1500
AUX_BASIS_CORR rimp2-def2-QZVPPD
SCF_CONVERGENCE 7
SCF_ALGORITHM  GDM
method DSD-PBEPBE-D3
GEN_SCFMAN TRUE
UNRESTRICTED True
THRESH  14
SYMMETRY FALSE
SYM_IGNORE TRUE
max_scf_cycles 200

XC_GRID 000099000590
BASIS DEF2-QZVPPD


$end










