$molecule
0 2
C 0.0488 0.7245 0.0000
C 0.0488 -0.5915 0.0000
H -0.6836 1.5182 0.0000
H -0.8763 -1.1584 0.0000
H 0.9739 -1.1584 0.0000
$end


$rem
N_FROZEN_CORE FC
MEM_TOTAL 3750
MEM_STATIC 1500
AUX_BASIS_CORR rimp2-def2-QZVPPD
SCF_CONVERGENCE 7
SCF_ALGORITHM  GDM
method DSD-PBEPBE-D3
GEN_SCFMAN TRUE
UNRESTRICTED True
THRESH  14
SYMMETRY FALSE
SYM_IGNORE TRUE
max_scf_cycles 200

XC_GRID 000099000590
BASIS AUG-PC-3


$end





$multipole_field
X 0.0
Y 0.01
Z 0.0
$end




