$molecule
0 1
N  -0.0094000000  0.7040000000  0.0000000000
O  -0.0094000000  -0.7490000000  0.0000000000
H  -0.9525000000  -0.9386000000  0.0000000000
H  0.5469000000  1.0012000000  0.7965000000
H  0.5469000000  1.0012000000  -0.7965000000
$end


$rem
N_FROZEN_CORE FC
MEM_TOTAL 3750
MEM_STATIC 1500
AUX_BASIS_CORR rimp2-def2-QZVPPD
SCF_CONVERGENCE 7
SCF_ALGORITHM  GDM
method DSD-PBEPBE-D3
GEN_SCFMAN TRUE
UNRESTRICTED True
THRESH  14
SYMMETRY FALSE
SYM_IGNORE TRUE
max_scf_cycles 200

XC_GRID 000099000590
BASIS AUG-PC-3


$end










