$molecule
0 1
C  0.0588000000  0.0000000000  0.5875000000
N  0.0588000000  0.0000000000  -0.6855000000
H  -0.8621000000  0.0000000000  1.1946000000
H  0.9977000000  0.0000000000  1.1231000000
H  -0.8995000000  0.0000000000  -1.0438000000
$end


$rem
N_FROZEN_CORE FC
MEM_TOTAL 3750
MEM_STATIC 1500
AUX_BASIS_CORR rimp2-def2-QZVPPD
SCF_CONVERGENCE 7
SCF_ALGORITHM  GDM
method DSD-PBEPBE-D3
GEN_SCFMAN TRUE
UNRESTRICTED True
THRESH  14
SYMMETRY FALSE
SYM_IGNORE TRUE
max_scf_cycles 200

XC_GRID 000099000590
BASIS AUG-PC-3


$end










