$molecule
0 1
C  -0.0503000000  0.6685000000  0.0000000000
O  -0.0503000000  -0.7585000000  0.0000000000
H  -1.0807000000  1.0417000000  0.0000000000
H  0.4650000000  1.0417000000  0.8924000000
H  0.4650000000  1.0417000000  -0.8924000000
H  0.8544000000  -1.0677000000  0.0000000000
$end


$rem
N_FROZEN_CORE FC
MEM_TOTAL 3750
MEM_STATIC 1500
AUX_BASIS_CORR rimp2-def2-QZVPPD
SCF_CONVERGENCE 7
SCF_ALGORITHM  GDM
method DSD-PBEPBE-D3
GEN_SCFMAN TRUE
UNRESTRICTED True
THRESH  14
SYMMETRY FALSE
SYM_IGNORE TRUE
max_scf_cycles 200

XC_GRID 000099000590
BASIS AUG-PC-3


$end










