$molecule
0 1
C  0.0000000000  0.4165000000  0.0000000000
O  1.1942000000  0.2217000000  0.0000000000
N  -0.9373000000  -0.5551000000  0.0000000000
H  -0.4299000000  1.4182000000  0.0000000000
H  -0.6608000000  -1.5171000000  0.0000000000
H  -1.9020000000  -0.2881000000  0.0000000000
$end


$rem
N_FROZEN_CORE FC
MEM_TOTAL 3750
MEM_STATIC 1500
AUX_BASIS_CORR rimp2-def2-QZVPPD
SCF_CONVERGENCE 7
SCF_ALGORITHM  GDM
method DSD-PBEPBE-D3
GEN_SCFMAN TRUE
UNRESTRICTED True
THRESH  14
SYMMETRY FALSE
SYM_IGNORE TRUE
max_scf_cycles 200

XC_GRID 000099000590
BASIS AUG-PC-3


$end










