$molecule
0 2
C 0.0000 0.0000 -0.5899
O 0.0000 0.0000 0.8151
H 0.0000 1.0360 -0.9938
H 0.8972 -0.5180 -0.9938
H -0.8972 -0.5180 -0.9938
$end


$rem
N_FROZEN_CORE FC
MEM_TOTAL 3750
MEM_STATIC 1500
AUX_BASIS_CORR rimp2-def2-QZVPPD
SCF_CONVERGENCE 7
SCF_ALGORITHM  GDM
method DSD-PBEPBE-D3
GEN_SCFMAN TRUE
UNRESTRICTED True
THRESH  14
SYMMETRY FALSE
SYM_IGNORE TRUE
max_scf_cycles 200

XC_GRID 000250000974
BASIS AUG-PC-3


$end

$multipole_field
X 0.0
Y 0.0
Z -0.01
$end

