$molecule
0 1
N 0.0000 0.7230 -0.1123
N 0.0000 -0.7230 -0.1123
H -0.4470 1.0031 0.7562
H 0.4470 -1.0031 0.7562
H 0.9663 1.0031 0.0301
H -0.9663 -1.0031 0.0301
$end


$rem
N_FROZEN_CORE FC
MEM_TOTAL 3750
MEM_STATIC 1500
AUX_BASIS_CORR rimp2-def2-QZVPPD
SCF_CONVERGENCE 7
SCF_ALGORITHM  GDM
method DSD-PBEPBE-D3
GEN_SCFMAN TRUE
UNRESTRICTED True
THRESH  14
SYMMETRY FALSE
SYM_IGNORE TRUE
max_scf_cycles 200

XC_GRID 000099000590
BASIS AUG-PC-3


$end





$multipole_field
X 0.0
Y 0.0
Z -0.01
$end




