$molecule
0 1
C 0.0000 0.4199 0.0000
O -1.0543 -0.4121 0.0000
O 1.1506 0.0721 0.0000
H -0.0799 1.5140 0.0000
H -0.6905 -1.3134 0.0000
$end


$rem
N_FROZEN_CORE FC
MEM_TOTAL 3750
MEM_STATIC 1500
AUX_BASIS_CORR rimp2-def2-QZVPPD
SCF_CONVERGENCE 7
SCF_ALGORITHM  GDM
method DSD-PBEPBE-D3
GEN_SCFMAN TRUE
UNRESTRICTED True
THRESH  14
SYMMETRY FALSE
SYM_IGNORE TRUE
max_scf_cycles 200

XC_GRID 000099000590
BASIS AUG-PC-3


$end





$multipole_field
X 0.0
Y -0.01
Z 0.0
$end




