$molecule
0 1
C  -0.8500000000  -0.0344000000  -0.2000000000
S  0.9000000000  -0.5125000000  -0.1219000000
H  1.4219000000  0.5781000000  0.4250000000
H  -0.9406000000  0.8688000000  -0.8219000000
H  -1.4219000000  -0.8688000000  -0.6469000000
H  -1.2031000000  0.1656000000  0.8219000000
$end


$rem
N_FROZEN_CORE FC
MEM_TOTAL 3750
MEM_STATIC 1500
AUX_BASIS_CORR rimp2-def2-QZVPPD
SCF_CONVERGENCE 7
SCF_ALGORITHM  GDM
method DSD-PBEPBE-D3
GEN_SCFMAN TRUE
UNRESTRICTED True
THRESH  14
SYMMETRY FALSE
SYM_IGNORE TRUE
max_scf_cycles 200

XC_GRID 000099000590
BASIS AUG-PC-3


$end










