$molecule
0 2
C  0.0488000000  0.7245000000  0.0000000000
C  0.0488000000  -0.5915000000  0.0000000000
H  -0.6836000000  1.5182000000  0.0000000000
H  -0.8763000000  -1.1584000000  0.0000000000
H  0.9739000000  -1.1584000000  0.0000000000
$end


$rem
N_FROZEN_CORE FC
MEM_TOTAL 3750
MEM_STATIC 1500
AUX_BASIS_CORR rimp2-def2-QZVPPD
SCF_CONVERGENCE 7
SCF_ALGORITHM  GDM
method DSD-PBEPBE-D3
GEN_SCFMAN TRUE
UNRESTRICTED True
THRESH  14
SYMMETRY FALSE
SYM_IGNORE TRUE
max_scf_cycles 200

XC_GRID 000099000590
BASIS AUG-PC-3


$end










