$molecule
0 1
C 0.0000 0.4165 0.0000
O 1.1942 0.2217 0.0000
N -0.9373 -0.5551 0.0000
H -0.4299 1.4182 0.0000
H -0.6608 -1.5171 0.0000
H -1.9020 -0.2881 0.0000
$end


$rem
N_FROZEN_CORE FC
MEM_TOTAL 3750
MEM_STATIC 1500
AUX_BASIS_CORR rimp2-def2-QZVPPD
SCF_CONVERGENCE 7
SCF_ALGORITHM  GDM
method DSD-PBEPBE-D3
GEN_SCFMAN TRUE
UNRESTRICTED True
THRESH  14
SYMMETRY FALSE
SYM_IGNORE TRUE
max_scf_cycles 200

XC_GRID 000099000590
BASIS AUG-PC-3


$end





$multipole_field
X 0.0
Y 0.01
Z 0.0
$end




