$molecule
0 1
O  0.0000000000  0.7375000000  -0.0528000000
O  0.0000000000  -0.7375000000  -0.0528000000
H  0.8190000000  0.8170000000  0.4220000000
H  -0.8190000000  -0.8170000000  0.4220000000
$end


$rem
N_FROZEN_CORE FC
MEM_TOTAL 3750
MEM_STATIC 1500
AUX_BASIS_CORR rimp2-def2-QZVPPD
SCF_CONVERGENCE 7
SCF_ALGORITHM  GDM
method DSD-PBEPBE-D3
GEN_SCFMAN TRUE
UNRESTRICTED True
THRESH  14
SYMMETRY FALSE
SYM_IGNORE TRUE
max_scf_cycles 200

XC_GRID 000099000590
BASIS AUG-PC-3


$end










