$molecule
0 2
Si 0.0000 0.0000 0.0819
H 0.0000 1.3928 -0.3820
H 1.2062 -0.6964 -0.3820
H -1.2062 -0.6964 -0.3820
$end


$rem
N_FROZEN_CORE FC
MEM_TOTAL 3750
MEM_STATIC 1500
AUX_BASIS_CORR rimp2-def2-QZVPPD
SCF_CONVERGENCE 7
SCF_ALGORITHM  GDM
method DSD-PBEPBE-D3
GEN_SCFMAN TRUE
UNRESTRICTED True
THRESH  14
SYMMETRY FALSE
SYM_IGNORE TRUE
max_scf_cycles 200

XC_GRID 000099000590
BASIS AUG-PC-3


$end





$multipole_field
X -0.01
Y 0.0
Z 0.0
$end




