$molecule
0 1
Ar  0.0000000000  0.0000000000  0.0000000000
$end


$rem
N_FROZEN_CORE FC
MEM_TOTAL 3750
MEM_STATIC 1500
AUX_BASIS_CORR rimp2-def2-QZVPPD
SCF_CONVERGENCE 7
SCF_ALGORITHM  GDM
method DSD-PBEPBE-D3
GEN_SCFMAN TRUE
UNRESTRICTED True
THRESH  14
SYMMETRY FALSE
SYM_IGNORE TRUE
max_scf_cycles 200

XC_GRID 000500000974
BASIS GEN
PURECART 11111


$end







$basis
He     0
S   1   1.00
      3.5660000              1.0000000
S   1   1.00
      1.2400000              1.0000000
S   8   1.00
   1145.0000000              0.0003590
    171.7000000              0.0027710
     39.0700000              0.0142510
     11.0400000              0.0555660
      3.5660000              0.1620910
      1.2400000              0.3321970
      0.4473000              0.4196150
      0.1640000              0.1861280
S   1   1.00
      0.4473000              1.0000000
S   1   1.00
      0.1640000              1.0000000
S   1   1.00
      0.0466400              1.0000000
S   1   1.00
      0.0133                 1.0000
P   1   1.00
     10.1530000              1.0000000
P   1   1.00
      3.6270000              1.0000000
P   1   1.00
      1.2960000              1.0000000
P   1   1.00
      0.4630000              1.0000000
P   1   1.00
      0.1400000              1.0000000
P   1   1.00
      0.0423                 1.0000
D   1   1.00
      7.6660000              1.0000000
D   1   1.00
      2.6470000              1.0000000
D   1   1.00
      0.9140000              1.0000000
D   1   1.00
      0.2892000              1.0000000
D   1   1.00
      0.0915                 1.0000
F   1   1.00
      5.4110000              1.0000000
F   1   1.00
      1.7070000              1.0000000
F   1   1.00
      0.5345000              1.0000000
F   1   1.00
      0.1670                 1.0000
G   1   1.00
      3.4300000              1.0000000
G   1   1.00
      0.7899000              1.0000000
G   1   1.00
      0.1820                 1.0000
****
Ne     0
S   14   1.00
 262700.0000000              0.0000260
  39350.0000000              0.0002000
   8955.0000000              0.0010500
   2538.0000000              0.0044000
    829.9000000              0.0156490
    301.5000000              0.0477580
    119.0000000              0.1229430
     50.0000000              0.2524830
     21.9800000              0.3663140
      9.8910000              0.2796170
      4.3270000              0.0616510
      1.8040000              0.0009340
      0.7288000              0.0013670
      0.2867000             -0.0000380
S   1   1.00
      4.3270000              1.0000000
S   1   1.00
      1.8040000              1.0000000
S   14   1.00
 262700.0000000             -0.0000060
  39350.0000000             -0.0000470
   8955.0000000             -0.0002470
   2538.0000000             -0.0010380
    829.9000000             -0.0037110
    301.5000000             -0.0115930
    119.0000000             -0.0310860
     50.0000000             -0.0709720
     21.9800000             -0.1272660
      9.8910000             -0.1512310
      4.3270000              0.0246660
      1.8040000              0.3996120
      0.7288000              0.5266160
      0.2867000              0.1908540
S   1   1.00
      0.7288000              1.0000000
S   1   1.00
      0.2867000              1.0000000
S   1   1.00
      0.0957000              1.0000000
S   1   1.00
      0.0319                 1.0000
P   1   1.00
      3.2690000              1.0000000
P   1   1.00
      1.3150000              1.0000000
P   8   1.00
    299.1000000              0.0010380
     70.7300000              0.0083750
     22.4800000              0.0396930
      8.2460000              0.1280560
      3.2690000              0.2703250
      1.3150000              0.3709630
      0.5158000              0.3284990
      0.1918000              0.1275880
P   1   1.00
      0.5158000              1.0000000
P   1   1.00
      0.1918000              1.0000000
P   1   1.00
      0.0654000              1.0000000
P   1   1.00
      0.0223                 1.0000
D   1   1.00
      9.8370000              1.0000000
D   1   1.00
      3.8440000              1.0000000
D   1   1.00
      1.5020000              1.0000000
D   1   1.00
      0.5870000              1.0000000
D   1   1.00
      0.2130000              1.0000000
D   1   1.00
      0.0773                 1.0000
F   1   1.00
      7.0900000              1.0000000
F   1   1.00
      2.7380000              1.0000000
F   1   1.00
      1.0570000              1.0000000
F   1   1.00
      0.4250000              1.0000000
F   1   1.00
      0.1710                 1.0000
G   1   1.00
      5.4600000              1.0000000
G   1   1.00
      1.8800000              1.0000000
G   1   1.00
      0.8090000              1.0000000
G   1   1.00
      0.3480                 1.0000
H   1   1.00
      3.7760000              1.0000000
H   1   1.00
      1.6280000              1.0000000
H   1   1.00
      0.7020                 1.0000
****
Ar     0
S   20   1.00
      7.401000D+06           1.750000D-06
      1.108000D+06           1.361000D-05
      2.521000D+05           7.163000D-05
      7.138000D+04           3.030300D-04
      2.326000D+04           1.106080D-03
      8.390000D+03           3.606710D-03
      3.271000D+03           1.071321D-02
      1.357000D+03           2.910677D-02
      5.920000D+02           7.166011D-02
      2.691000D+02           1.541405D-01
      1.265000D+02           2.704171D-01
      6.103000D+01           3.348547D-01
      2.986000D+01           2.243463D-01
      1.417000D+01           5.000284D-02
      7.022000D+00           6.459000D-05
      3.511000D+00           1.686410D-03
      1.758000D+00          -5.809600D-04
      7.841000D-01           1.967000D-04
      3.480000D-01          -1.112500D-04
      1.491000D-01           2.061000D-05
S   20   1.00
      7.401000D+06          -5.000000D-07
      1.108000D+06          -3.870000D-06
      2.521000D+05          -2.034000D-05
      7.138000D+04          -8.609000D-05
      2.326000D+04          -3.144400D-04
      8.390000D+03          -1.028410D-03
      3.271000D+03          -3.072670D-03
      1.357000D+03          -8.475320D-03
      5.920000D+02          -2.152008D-02
      2.691000D+02          -4.944932D-02
      1.265000D+02          -9.877592D-02
      6.103000D+01          -1.583082D-01
      2.986000D+01          -1.514030D-01
      1.417000D+01           5.824264D-02
      7.022000D+00           4.293830D-01
      3.511000D+00           4.990888D-01
      1.758000D+00           1.602784D-01
      7.841000D-01           8.839600D-03
      3.480000D-01           1.131300D-03
      1.491000D-01           2.237700D-04
S   1   1.00
      1.758000D+00           1.000000D+00
S   1   1.00
      7.841000D-01           1.000000D+00
S   1   1.00
      3.480000D-01           1.000000D+00
S   20   1.00
      7.401000D+06           1.600000D-07
      1.108000D+06           1.210000D-06
      2.521000D+05           6.360000D-06
      7.138000D+04           2.689000D-05
      2.326000D+04           9.834000D-05
      8.390000D+03           3.212900D-04
      3.271000D+03           9.620000D-04
      1.357000D+03           2.652450D-03
      5.920000D+02           6.770350D-03
      2.691000D+02           1.561727D-02
      1.265000D+02           3.171666D-02
      6.103000D+01           5.199742D-02
      2.986000D+01           5.247514D-02
      1.417000D+01          -2.264147D-02
      7.022000D+00          -1.860623D-01
      3.511000D+00          -3.501455D-01
      1.758000D+00          -1.276828D-01
      7.841000D-01           4.533453D-01
      3.480000D-01           6.098824D-01
      1.491000D-01           1.880992D-01
S   1   1.00
      1.491000D-01           1.000000D+00
S   1   1.00
      0.0538000              1.0000000
S   1   1.0
      1.941274D-02        1.000000D+00
P   12   1.00
      2.927000D+03           2.319900D-04
      6.935000D+02           2.023290D-03
      2.247000D+02           1.103401D-02
      8.517000D+01           4.383970D-02
      3.553000D+01           1.303590D-01
      1.573000D+01           2.757499D-01
      7.165000D+00           3.876433D-01
      3.322000D+00           2.874074D-01
      1.478000D+00           6.575812D-02
      6.552000D-01           1.473900D-04
      2.751000D-01           1.138790D-03
      1.097000D-01          -2.525300D-04
P   1   1.00
      1.478000D+00           1.000000D+00
P   1   1.00
      6.552000D-01           1.000000D+00
P   12   1.00
      2.927000D+03          -6.491000D-05
      6.935000D+02          -5.653100D-04
      2.247000D+02          -3.109880D-03
      8.517000D+01          -1.246964D-02
      3.553000D+01          -3.822465D-02
      1.573000D+01          -8.307918D-02
      7.165000D+00          -1.245941D-01
      3.322000D+00          -8.329713D-02
      1.478000D+00           1.639825D-01
      6.552000D-01           4.314312D-01
      2.751000D-01           4.290406D-01
      1.097000D-01           1.540010D-01
P   1   1.00
      2.751000D-01           1.000000D+00
P   1   1.00
      1.097000D-01           1.000000D+00
P   1   1.00
      0.0402000              1.0000000
P   1   1.0
       1.473145D-02        1.000000D+00
D   1   1.00
      4.776000D+00           1.000000D+00
D   1   1.00
      1.917000D+00           1.000000D+00
D   1   1.00
      7.700000D-01           1.000000D+00
D   1   1.00
      3.090000D-01           1.000000D+00
D   1   1.00
      0.1210000              1.0000000
D   1   1.0
       4.738188D-02        1.000000D+00
F   1   1.00
      1.668000D+00           1.000000D+00
F   1   1.00
      8.250000D-01           1.000000D+00
F   1   1.00
      4.080000D-01           1.000000D+00
F   1   1.00
      0.2090000              1.0000000
F   1   1.0
       1.070613D-01        1.000000D+00
G   1   1.00
      1.562000D+00           1.000000D+00
G   1   1.00
      6.650000D-01           1.000000D+00
G   1   1.00
      0.3340000              1.0000000
G   1   1.0
       1.677534D-01        1.000000D+00
H   1   1.00
      1.264000D+00           1.0000000
H   1   1.00
      0.7420000              1.0000000
H   1   1.0
       4.355728D-01        1.000000D+00
****
Kr     0
S   26   1.00
      1.828221D+08           1.800000D-07
      2.735616D+07           1.420000D-06
      6.221170D+06           7.460000D-06
      1.760278D+06           3.159000D-05
      5.731938D+05           1.157500D-04
      2.062585D+05           3.815000D-04
      8.002667D+04           1.159000D-03
      3.293908D+04           3.293400D-03
      1.422263D+04           8.816100D-03
      6.393071D+03           2.221800D-02
      2.976454D+03           5.208810D-02
      1.430525D+03           1.106356D-01
      7.079262D+02           2.025326D-01
      3.598485D+02           2.926350D-01
      1.871497D+02           2.851224D-01
      9.863452D+01           1.455064D-01
      5.054787D+01           2.399390D-02
      2.716700D+01          -9.490000D-05
      1.461510D+01           5.578000D-04
      7.651352D+00          -2.870000D-04
      3.997263D+00           9.660000D-05
      2.085853D+00          -7.840000D-05
      1.014797D+00           3.877000D-05
      5.197880D-01          -1.822000D-05
      2.451030D-01           7.630000D-06
      1.118960D-01          -1.590000D-06
S   26   1.00
      1.828221D+08          -5.700000D-07
      2.735616D+07          -4.500000D-07
      6.221170D+06          -2.350000D-06
      1.760278D+06          -9.940000D-06
      5.731938D+05          -3.640000D-05
      2.062585D+05          -1.201000D-04
      8.002667D+04          -3.654000D-04
      3.293908D+04          -1.040700D-03
      1.422263D+04          -2.803800D-03
      6.393071D+03          -7.150900D-03
      2.976454D+03          -1.722040D-02
      1.430525D+03          -3.848000D-02
      7.079262D+02          -7.786280D-02
      3.598485D+02          -1.347423D-01
      1.871497D+02          -1.776148D-01
      9.863452D+01          -1.068413D-01
      5.054787D+01           1.896132D-01
      2.716700D+01           5.091871D-01
      1.461510D+01           3.939859D-01
      7.651352D+00           9.190320D-02
      3.997263D+00           3.919500D-03
      2.085853D+00           1.749600D-03
      1.014797D+00          -4.258000D-04
      5.197880D-01           1.529000D-04
      2.451030D-01          -9.381000D-05
      1.118960D-01           1.326000D-05
S   26   1.00
      1.828221D+08           2.000000D-08
      2.735616D+07           1.800000D-07
      6.221170D+06           9.400000D-07
      1.760278D+06           3.990000D-06
      5.731938D+05           1.462000D-05
      2.062585D+05           4.819000D-05
      8.002667D+04           1.467000D-04
      3.293908D+04           4.177000D-04
      1.422263D+04           1.126700D-03
      6.393071D+03           2.876900D-03
      2.976454D+03           6.954900D-03
      1.430525D+03           1.563650D-02
      7.079262D+02           3.208010D-02
      3.598485D+02           5.686890D-02
      1.871497D+02           7.848450D-02
      9.863452D+01           5.033980D-02
      5.054787D+01          -1.042742D-01
      2.716700D+01          -3.743761D-01
      1.461510D+01          -4.011131D-01
      7.651352D+00           9.683880D-02
      3.997263D+00           6.428776D-01
      2.085853D+00           4.860600D-01
      1.014797D+00           7.334560D-02
      5.197880D-01          -1.007700D-03
      2.451030D-01           1.608700D-03
      1.118960D-01          -4.393000D-05
S   1   1.00
      1.014797D+00           1.000000D+00
S   1   1.00
      5.197880D-01           1.000000D+00
S   26   1.00
      1.828221D+08          -6.000000D-09
      2.735616D+07          -5.700000D-08
      6.221170D+06          -3.000000D-07
      1.760278D+06          -1.270000D-06
      5.731938D+05          -4.658000D-06
      2.062585D+05          -1.534700D-05
      8.002667D+04          -4.673600D-05
      3.293908D+04          -1.330220D-04
      1.422263D+04          -3.590620D-04
      6.393071D+03          -9.165000D-04
      2.976454D+03          -2.218400D-03
      1.430525D+03          -4.988300D-03
      7.079262D+02          -1.026610D-02
      3.598485D+02          -1.824450D-02
      1.871497D+02          -2.541100D-02
      9.863452D+01          -1.639310D-02
      5.054787D+01           3.469770D-02
      2.716700D+01           1.321283D-01
      1.461510D+01           1.470925D-01
      7.651352D+00          -4.182160D-02
      3.997263D+00          -3.195240D-01
      2.085853D+00          -4.363286D-01
      1.014797D+00           4.291100D-03
      5.197880D-01           5.645558D-01
      2.451030D-01           5.502845D-01
      1.118960D-01           1.297710D-01
S   1   1.00
      2.451030D-01           1.000000D+00
S   1   1.00
      1.118960D-01           1.000000D+00
S   1   1.00
      0.0442770              1.0000000
S   1   1.0
       1.752031D-02        1.000000D+00
P   17   1.00
      4.299306D+04           2.970000D-05
      1.017372D+04           2.651000D-04
      3.303106D+03           1.541600D-03
      1.263540D+03           6.906500D-03
      5.363655D+02           2.513970D-02
      2.448762D+02           7.501240D-02
      1.179912D+02           1.767433D-01
      5.902125D+01           3.075135D-01
      3.035607D+01           3.470644D-01
      1.581998D+01           2.002802D-01
      8.104580D+00           4.305080D-02
      4.097964D+00           2.477200D-03
      2.056061D+00           6.789000D-04
      9.521450D-01          -8.210000D-05
      4.447740D-01           4.690000D-05
      1.974960D-01          -2.210000D-05
      8.382300D-02           5.800000D-06
P   17   1.00
      4.299306D+04          -1.210000D-05
      1.017372D+04          -1.078000D-04
      3.303106D+03          -6.290000D-04
      1.263540D+03          -2.832300D-03
      5.363655D+02          -1.044620D-02
      2.448762D+02          -3.194000D-02
      1.179912D+02          -7.845990D-02
      5.902125D+01          -1.439719D-01
      3.035607D+01          -1.691703D-01
      1.581998D+01          -1.759660D-02
      8.104580D+00           3.002649D-01
      4.097964D+00           4.847661D-01
      2.056061D+00           2.967248D-01
      9.521450D-01           4.745330D-02
      4.447740D-01          -4.728000D-04
      1.974960D-01           9.253000D-04
      8.382300D-02          -1.847000D-04
P   1   1.00
      9.521450D-01           1.000000D+00
P   1   1.00
      4.447740D-01           1.000000D+00
P   17   1.00
      4.299306D+04           3.300000D-06
      1.017372D+04           2.930000D-05
      3.303106D+03           1.713000D-04
      1.263540D+03           7.695000D-04
      5.363655D+02           2.851400D-03
      2.448762D+02           8.720400D-03
      1.179912D+02           2.161810D-02
      5.902125D+01           3.980240D-02
      3.035607D+01           4.747750D-02
      1.581998D+01          -4.773000D-04
      8.104580D+00          -1.021891D-01
      4.097964D+00          -1.823611D-01
      2.056061D+00          -1.173363D-01
      9.521450D-01           1.954244D-01
      4.447740D-01           4.590176D-01
      1.974960D-01           4.096174D-01
      8.382300D-02           1.259715D-01
P   1   1.00
      1.974960D-01           1.000000D+00
P   1   1.00
      8.382300D-02           1.000000D+00
P   1   1.00
      0.0331290              1.0000000
P   1   1.0
       1.309343D-02        1.000000D+00
D   12   1.00
      2.067436D+03           4.960000D-05
      6.256937D+02           4.944000D-04
      2.439468D+02           3.026500D-03
      1.084237D+02           1.334610D-02
      5.200522D+01           4.378690D-02
      2.611540D+01           1.114388D-01
      1.354675D+01           2.130341D-01
      7.105810D+00           2.979241D-01
      3.721554D+00           3.079660D-01
      1.929120D+00           2.110775D-01
      9.558260D-01           7.632610D-02
      4.051970D-01           9.173300D-03
D   1   1.00
      1.929120D+00           1.000000D+00
D   1   1.00
      9.558260D-01           1.000000D+00
D   1   1.00
      4.051970D-01           1.000000D+00
D   1   1.00
      1.741000D-01           1.000000D+00
D   1   1.00
      0.1014000              1.0000000
D   1   1.0
       5.905778D-02        1.000000D+00
F   1   1.00
      1.094000D+00           1.000000D+00
F   1   1.00
      5.870000D-01           1.000000D+00
F   1   1.00
      3.150000D-01           1.000000D+00
F   1   1.00
      0.1784000              1.0000000
F   1   1.0
       1.010367D-01        1.000000D+00
G   1   1.00
      1.104000D+00           1.000000D+00
G   1   1.00
      5.010000D-01           1.000000D+00
G   1   1.00
      0.2550000              1.0000000
G   1   1.0
       1.297904D-01        1.000000D+00
H   1   1.00
      9.303000D-01           1.0000000
H   1   1.00
      0.5800000              1.0000000
H   1   1.0
       3.616038D-01        1.000000D+00
****
$end


