$molecule
0 1
C  -0.6425946870  -0.4838019848  0.0000000000
C  0.4579311770  0.5551029812  0.0000000000
Cl  2.1146211606  -0.2217685732  0.0000000000
H  -1.6145135859  0.0191096676  0.0000000000
H  -0.5865634506  -1.1188405586  -0.8849271380
H  -0.5865634506  -1.1188405586  0.8849271380
H  0.4288414182  1.1845195131  0.8864592247
H  0.4288414182  1.1845195131  -0.8864592247
$end


$rem
N_FROZEN_CORE FC
MEM_TOTAL 3750
MEM_STATIC 1500
AUX_BASIS_CORR rimp2-def2-QZVPPD
SCF_CONVERGENCE 7
SCF_ALGORITHM  GDM
method DSD-PBEPBE-D3
GEN_SCFMAN TRUE
UNRESTRICTED True
THRESH  14
SYMMETRY FALSE
SYM_IGNORE TRUE
max_scf_cycles 200

XC_GRID 000099000590
BASIS DEF2-QZVPPD


$end










