$molecule
0 1
C  0.0000000000  0.0000000000  0.8527803022
C  0.0000000000  0.0000000000  -0.6602152737
Cl  -0.8500071101  -1.4722555014  -1.2825571587
Cl  -0.8500071101  1.4722555014  -1.2825571587
Cl  1.7000142201  0.0000000000  -1.2825571587
H  0.5131360979  -0.8887777928  1.2183688159
H  0.5131360979  0.8887777928  1.2183688159
H  -1.0262721959  0.0000000000  1.2183688159
$end


$rem
N_FROZEN_CORE FC
MEM_TOTAL 3750
MEM_STATIC 1500
AUX_BASIS_CORR rimp2-def2-QZVPPD
SCF_CONVERGENCE 7
SCF_ALGORITHM  GDM
method DSD-PBEPBE-D3
GEN_SCFMAN TRUE
UNRESTRICTED True
THRESH  14
SYMMETRY FALSE
SYM_IGNORE TRUE
max_scf_cycles 200

XC_GRID 000099000590
BASIS DEF2-QZVPPD


$end










