$molecule
0 2
C  -0.7352845802  0.5321860923  0.0000000000
C  0.2708813185  -0.5153658982  0.0000000000
Cl  2.0118590631  0.2539359511  0.0000000000
H  -1.0459402416  0.9931589815  -0.9283664970
H  -1.0459402416  0.9931589815  0.9283664970
H  0.2722123409  -1.1285370541  -0.8960867292
H  0.2722123409  -1.1285370541  0.8960867292
$end


$rem
N_FROZEN_CORE FC
MEM_TOTAL 3750
MEM_STATIC 1500
AUX_BASIS_CORR rimp2-def2-QZVPPD
SCF_CONVERGENCE 7
SCF_ALGORITHM  GDM
method DSD-PBEPBE-D3
GEN_SCFMAN TRUE
UNRESTRICTED True
THRESH  14
SYMMETRY FALSE
SYM_IGNORE TRUE
max_scf_cycles 200

XC_GRID 000099000590
BASIS DEF2-QZVPPD


$end










