$molecule
0 2
C  0.0534633038  -0.5010469807  0.0000000000
C  0.0289156923  0.9559679689  0.0000000000
Cl  -1.6869291082  -1.1394801242  0.0000000000
Cl  0.8772594861  -1.1364913951  -1.4781998086
Cl  0.8772594861  -1.1364913951  1.4781998086
H  -0.0752313133  1.4787308408  -0.9390355983
H  -0.0752313133  1.4787308408  0.9390355983
$end


$rem
N_FROZEN_CORE FC
MEM_TOTAL 3750
MEM_STATIC 1500
AUX_BASIS_CORR rimp2-def2-QZVPPD
SCF_CONVERGENCE 7
SCF_ALGORITHM  GDM
method DSD-PBEPBE-D3
GEN_SCFMAN TRUE
UNRESTRICTED True
THRESH  14
SYMMETRY FALSE
SYM_IGNORE TRUE
max_scf_cycles 200

XC_GRID 000099000590
BASIS DEF2-QZVPPD


$end










